Al  C  H  O Si                          
   1.00000000000000     
    13.7295718138195095   -0.0046245600172939   -0.0014114421969975
    -6.8687391429947304   11.8909148165505947    0.0018197327751748
    -0.0015106504129000    0.0013072721429291   14.8903784328561191
   Al   C    H    O    Si
     1     1     3    72    35
Direct
  0.5724060245422172  0.6744606787897126  0.5682701651490035
  0.3874009168394005  0.6123080146133235  0.4500413987869549
  0.4249380321726627  0.7035728226602221  0.4530694785003241
  0.4212553433592321  0.5873199959884392  0.3935149713560622
  0.2959861135145197  0.5728633538752415  0.4457440225377086
  0.0155508183944259  0.3344261243846261  0.8394384171989800
  0.2053724568509481  0.4130502219155182  0.5479125151497360
  0.5487780094177573  0.0955950715535308  0.2032211405847462
  0.8777725871154859  0.7607397286630743  0.8657562552495232
  0.4438671076387137  0.5518730236878406  0.8171020468831547
  0.1229007779639004  0.8797640620668643  0.1306519428312924
  0.0916184709294312  0.5469334819780314  0.8012842505314459
  0.4161664833863714  0.2089399355580041  0.4633798245071116
  0.7628171259635914  0.8799378608250221  0.1403580100888291
  0.2200959155257759  0.7825792718219511  0.5383420078472649
  0.9023424898992792  0.0986490666066535  0.1299576987215902
  0.2373925195644464  0.1198960118202631  0.8665014763063593
  0.8745081962976331  0.4375604230021746  0.4563384920184780
  0.4389030194332486  0.8692446822977286  0.5466630309912809
  0.9855637364618863  0.3158648844740303  0.1680004773811268
  0.6525415908602454  0.0134015823175294  0.5080608856970394
  0.0087349626022213  0.6518910601809169  0.4964884860622712
  0.3355448698084310  0.3152544562137575  0.1654934773577029
  0.9861266635856930  0.6655450505338492  0.1641782169146756
  0.3633735599088337  0.3641857884879036  0.5016176804926316
  0.6849465221936711  0.0166213654577860  0.1708263462588430
  0.6621764565450984  0.9826001543357071  0.8436303176500869
 -0.0003703135292779  0.3464015808017964  0.5005167279721877
  0.7852828049892303  0.2198480783284098  0.4627821834638008
  0.3362731361667667  0.0189913111329155  0.1645888533242852
  0.9092195021226021  0.4522888540011942  0.2013906744244332
  0.3110207193083835  0.3323356919121630  0.8308984964246875
  0.4494610619411542  0.9040878975233065  0.8049448541657218
  0.0700858025376174  0.6627628769001488  0.6663428407911063
  0.6634166640724984  0.0706779028817520  0.3367596800827681
  0.9966577921896250  0.7407087054346818 -0.0005718243485400
  0.5969775660408054  0.9437370838759277  0.6748901261147177
  0.9295681576716274  0.5957726660679468  0.3310153533484363
  0.2593529835286423  0.2606407806033754 -0.0010271630050360
  0.4072649515737650  0.3395906144064124  0.3335274810052379
  0.7921874202937168  0.5733420681391848  0.4662194555934543
  0.7429522542671314  0.9978217244260470  0.0058513419947040
  0.5895329095001425  0.8039717025939870  0.5462538563190638
  0.5799621805776309  0.6444262595949477  0.6783604362157124
  0.2611035423656088  0.0010116979308195 -0.0016860065815945
  0.0566387226065574  0.3998319475600158  0.6705049833837929
  0.4020101325660026  0.0673373723421995  0.3336553848247077
  0.3548175401419916  0.4261645581772390  0.6697066225185395
  0.7481794445232545  0.7472644283327832  0.0041257901261154
  0.5490502996535715  0.4512738590687759  0.1984604020060783
  0.8770849389902563  0.1204293367490842  0.8709414974006140
  0.3359164126336072  0.9293014633318135  0.6683333907721061
  0.5749011049742341  0.4231527057987084  0.4529014165088679
  0.6712928299896146  0.5870590561774404  0.3316846643371008
  0.9340046746594605  0.3351717899796458  0.3336560822651643
  0.3511766812308837 -0.0019204443593079  0.5012114248868248
  0.3127220448854504  0.9820425289280511  0.8324365321140632
  0.9042325759598370  0.8019089775387096  0.1301987631845754
  0.2316185838166795  0.7654892473738887  0.7893044761589785
  0.1218734792398102  0.2385755779615736  0.1342744474639936
  0.5658258566491882  0.1406884307138153  0.4555849763664285
  0.2275722011327721  0.4638686181767668  0.7835980048269569
  0.2004255252404885  0.0992121961429308  0.1226756562925701
  0.0000677953284425  0.2574301653033363  0.0033114163556333
  0.0969486989647187  0.9013591574139180  0.8759096209114692
  0.8013973215070256  0.9024790956112441  0.8763110212943249
  0.4166075763509094  0.5769768317487404  0.5351296281478757
  0.5342923941321785  0.7701200008797515  0.7893432114443008
  0.7691472392983992  0.5300285816023619  0.2042874942225905
  0.1357232530718914  0.5623662935630762  0.5461897148074663
  0.4677043050661966  0.2332657734828815  0.2145780469132029
  0.6429260972460419  0.6366561723089716  0.4956372759333471
  0.7688508237506122  0.2328365015014007  0.2133564593380942
  0.6603750050264117  0.6839156079714460  0.8443129538770532
  0.0160008105750018  0.6852445863806818  0.8328370113667353
  0.0963032400973184  0.1973155958996116  0.8761150864634190
  0.6862358073464930  0.6650275591529003  0.1671641866909523
  0.5610781123728441  0.8986989539333604  0.7772746167426114
  0.9971171130762176  0.7722938101621681  0.8939678548523128
  0.8981071269498329  0.3332578875766653  0.2292471321980838
  0.7735780072042630  0.9986054905370157  0.1112361796773362
  0.0983644393183513  0.4312874758097689  0.5672641904695275
  0.3343801995828292  0.4438398018841475  0.7760222561007998
  0.0020168037012011  0.7720434432770751  0.1054326591060804
  0.3324412455257018  0.8945963099970096  0.7732701168038467
  0.2301610709927845  0.0000265403856142  0.1038150979015535
  0.2297347751132989  0.2281098379640722  0.1045866236344423
  0.0983097584741025  0.4363957932440483  0.7739621315205574
  0.6654522673834972  0.1103390049923205  0.4403420641613956
  0.0018161865258279  0.2265370962677654  0.1083787112372949
  0.8979352647760566  0.3349082870507141  0.4375216387418561
  0.3372552764254006  0.8952444813779858  0.5640086979194976
  0.9007747980881189  0.5648871704199970  0.4368988514723776
  0.1026751508731584  0.6658287240678873  0.7720889757282668
  0.3321683707342838  0.4391441837025207  0.5655896452383317
  0.8979234474078625  0.5611084667447689  0.2259924371539488
  0.7759283446866260  0.7736556728424127  0.1100630588799577
  0.6703039687915530  0.5564896254664351  0.4377877108994391
  0.4420878983074923  0.3345125778329593  0.4376852004457271
  0.1082407757405015  0.6647356954143787  0.5625250499967002
  0.2261998518479457  0.0004566984513725  0.8938020411636596
  0.6694828883720858  0.5583829173271299  0.2261545936988555
  0.5563911697145243  0.6640458243700793  0.7799472609920778
  0.9975684210987675  0.2269625273890587  0.8977023086366267
  0.7716621418625417  0.7738112127937078  0.8975464321335822
  0.6670914369079651  0.1045170406450837  0.2314760050281341
  0.2256856150742725  0.2276290417020734  0.8939006931406946
  0.4398386389951153  0.3343043549514138  0.2286471894822212
  0.7707590471940110  0.0000505976090115  0.8995224592009509
  0.5701943077722285  0.9060357644640737  0.5696999379374372
  0.4386161471079105  0.1039832316822371  0.2295063117458797
  0.4345562983733182  0.1038656105772118  0.4384318010393490
 
  0.00000000E+00  0.00000000E+00  0.00000000E+00
  0.00000000E+00  0.00000000E+00  0.00000000E+00
  0.00000000E+00  0.00000000E+00  0.00000000E+00
  0.00000000E+00  0.00000000E+00  0.00000000E+00
  0.00000000E+00  0.00000000E+00  0.00000000E+00
  0.00000000E+00  0.00000000E+00  0.00000000E+00
  0.00000000E+00  0.00000000E+00  0.00000000E+00
  0.00000000E+00  0.00000000E+00  0.00000000E+00
  0.00000000E+00  0.00000000E+00  0.00000000E+00
  0.00000000E+00  0.00000000E+00  0.00000000E+00
  0.00000000E+00  0.00000000E+00  0.00000000E+00
  0.00000000E+00  0.00000000E+00  0.00000000E+00
  0.00000000E+00  0.00000000E+00  0.00000000E+00
  0.00000000E+00  0.00000000E+00  0.00000000E+00
  0.00000000E+00  0.00000000E+00  0.00000000E+00
  0.00000000E+00  0.00000000E+00  0.00000000E+00
  0.00000000E+00  0.00000000E+00  0.00000000E+00
  0.00000000E+00  0.00000000E+00  0.00000000E+00
  0.00000000E+00  0.00000000E+00  0.00000000E+00
  0.00000000E+00  0.00000000E+00  0.00000000E+00
  0.00000000E+00  0.00000000E+00  0.00000000E+00
  0.00000000E+00  0.00000000E+00  0.00000000E+00
  0.00000000E+00  0.00000000E+00  0.00000000E+00
  0.00000000E+00  0.00000000E+00  0.00000000E+00
  0.00000000E+00  0.00000000E+00  0.00000000E+00
  0.00000000E+00  0.00000000E+00  0.00000000E+00
  0.00000000E+00  0.00000000E+00  0.00000000E+00
  0.00000000E+00  0.00000000E+00  0.00000000E+00
  0.00000000E+00  0.00000000E+00  0.00000000E+00
  0.00000000E+00  0.00000000E+00  0.00000000E+00
  0.00000000E+00  0.00000000E+00  0.00000000E+00
  0.00000000E+00  0.00000000E+00  0.00000000E+00
  0.00000000E+00  0.00000000E+00  0.00000000E+00
  0.00000000E+00  0.00000000E+00  0.00000000E+00
  0.00000000E+00  0.00000000E+00  0.00000000E+00
  0.00000000E+00  0.00000000E+00  0.00000000E+00
  0.00000000E+00  0.00000000E+00  0.00000000E+00
  0.00000000E+00  0.00000000E+00  0.00000000E+00
  0.00000000E+00  0.00000000E+00  0.00000000E+00
  0.00000000E+00  0.00000000E+00  0.00000000E+00
  0.00000000E+00  0.00000000E+00  0.00000000E+00
  0.00000000E+00  0.00000000E+00  0.00000000E+00
  0.00000000E+00  0.00000000E+00  0.00000000E+00
  0.00000000E+00  0.00000000E+00  0.00000000E+00
  0.00000000E+00  0.00000000E+00  0.00000000E+00
  0.00000000E+00  0.00000000E+00  0.00000000E+00
  0.00000000E+00  0.00000000E+00  0.00000000E+00
  0.00000000E+00  0.00000000E+00  0.00000000E+00
  0.00000000E+00  0.00000000E+00  0.00000000E+00
  0.00000000E+00  0.00000000E+00  0.00000000E+00
  0.00000000E+00  0.00000000E+00  0.00000000E+00
  0.00000000E+00  0.00000000E+00  0.00000000E+00
  0.00000000E+00  0.00000000E+00  0.00000000E+00
  0.00000000E+00  0.00000000E+00  0.00000000E+00
  0.00000000E+00  0.00000000E+00  0.00000000E+00
  0.00000000E+00  0.00000000E+00  0.00000000E+00
  0.00000000E+00  0.00000000E+00  0.00000000E+00
  0.00000000E+00  0.00000000E+00  0.00000000E+00
  0.00000000E+00  0.00000000E+00  0.00000000E+00
  0.00000000E+00  0.00000000E+00  0.00000000E+00
  0.00000000E+00  0.00000000E+00  0.00000000E+00
  0.00000000E+00  0.00000000E+00  0.00000000E+00
  0.00000000E+00  0.00000000E+00  0.00000000E+00
  0.00000000E+00  0.00000000E+00  0.00000000E+00
  0.00000000E+00  0.00000000E+00  0.00000000E+00
  0.00000000E+00  0.00000000E+00  0.00000000E+00
  0.00000000E+00  0.00000000E+00  0.00000000E+00
  0.00000000E+00  0.00000000E+00  0.00000000E+00
  0.00000000E+00  0.00000000E+00  0.00000000E+00
  0.00000000E+00  0.00000000E+00  0.00000000E+00
  0.00000000E+00  0.00000000E+00  0.00000000E+00
  0.00000000E+00  0.00000000E+00  0.00000000E+00
  0.00000000E+00  0.00000000E+00  0.00000000E+00
  0.00000000E+00  0.00000000E+00  0.00000000E+00
  0.00000000E+00  0.00000000E+00  0.00000000E+00
  0.00000000E+00  0.00000000E+00  0.00000000E+00
  0.00000000E+00  0.00000000E+00  0.00000000E+00
  0.00000000E+00  0.00000000E+00  0.00000000E+00
  0.00000000E+00  0.00000000E+00  0.00000000E+00
  0.00000000E+00  0.00000000E+00  0.00000000E+00
  0.00000000E+00  0.00000000E+00  0.00000000E+00
  0.00000000E+00  0.00000000E+00  0.00000000E+00
  0.00000000E+00  0.00000000E+00  0.00000000E+00
  0.00000000E+00  0.00000000E+00  0.00000000E+00
  0.00000000E+00  0.00000000E+00  0.00000000E+00
  0.00000000E+00  0.00000000E+00  0.00000000E+00
  0.00000000E+00  0.00000000E+00  0.00000000E+00
  0.00000000E+00  0.00000000E+00  0.00000000E+00
  0.00000000E+00  0.00000000E+00  0.00000000E+00
  0.00000000E+00  0.00000000E+00  0.00000000E+00
  0.00000000E+00  0.00000000E+00  0.00000000E+00
  0.00000000E+00  0.00000000E+00  0.00000000E+00
  0.00000000E+00  0.00000000E+00  0.00000000E+00
  0.00000000E+00  0.00000000E+00  0.00000000E+00
  0.00000000E+00  0.00000000E+00  0.00000000E+00
  0.00000000E+00  0.00000000E+00  0.00000000E+00
  0.00000000E+00  0.00000000E+00  0.00000000E+00
  0.00000000E+00  0.00000000E+00  0.00000000E+00
  0.00000000E+00  0.00000000E+00  0.00000000E+00
  0.00000000E+00  0.00000000E+00  0.00000000E+00
  0.00000000E+00  0.00000000E+00  0.00000000E+00
  0.00000000E+00  0.00000000E+00  0.00000000E+00
  0.00000000E+00  0.00000000E+00  0.00000000E+00
  0.00000000E+00  0.00000000E+00  0.00000000E+00
  0.00000000E+00  0.00000000E+00  0.00000000E+00
  0.00000000E+00  0.00000000E+00  0.00000000E+00
  0.00000000E+00  0.00000000E+00  0.00000000E+00
  0.00000000E+00  0.00000000E+00  0.00000000E+00
  0.00000000E+00  0.00000000E+00  0.00000000E+00
  0.00000000E+00  0.00000000E+00  0.00000000E+00
  0.00000000E+00  0.00000000E+00  0.00000000E+00
  0.00000000E+00  0.00000000E+00  0.00000000E+00
