 H  C                                   
   1.00000000000000     
    16.0000000000000000    0.0000000000000000    0.0000000000000000
     0.0000000000000000   16.0000000000000000    0.0000000000000000
     0.0000000000000000    0.0000000000000000   16.0000000000000000
   H    C 
     2     1
Direct
  0.5148515852706979  0.4372686700957757  0.5000000000000000
  0.5148515870221360  0.5627313332308645  0.5000000000000000
  0.4889243652071755  0.4999999966733597  0.5000000000000000
 
  0.00000000E+00  0.00000000E+00  0.00000000E+00
  0.00000000E+00  0.00000000E+00  0.00000000E+00
  0.00000000E+00  0.00000000E+00  0.00000000E+00
