 H  C 
 1.0000000000000000
    16.0000000000000000    0.0000000000000000    0.0000000000000000
     0.0000000000000000   16.0000000000000000    0.0000000000000000
     0.0000000000000000    0.0000000000000000   16.0000000000000000
   2   1
Cartesian
  8.2376253643311728  6.9962987215324626  8.0000000000000000
  8.2376253923541256  9.0037013316937813  8.0000000000000000
  7.8227898433148511  7.9999999467737570  8.0000000000000000
