 H  C 
 1.0000000000000000
    16.0000000000000000    0.0000000000000000    0.0000000000000000
     0.0000000000000000   16.0000000000000000    0.0000000000000000
     0.0000000000000000    0.0000000000000000   16.0000000000000000
   2   1
Cartesian
  8.3385007008679981  7.1342408373485249  8.0000000000000000
  8.3385007008679981  8.8657591626514751  8.0000000000000000
  7.6210391982640351  8.0000000000000000  8.0000000000000000
