Al  C  H  O Si                          
   1.00000000000000     
    13.7295718099999995   -0.0046245600000000   -0.0014114400000000
    -6.8687391399999997   11.8909148200000008    0.0018197300000000
    -0.0015106500000000    0.0013072700000000   14.8903784300000002
   Al   C    H    O    Si
     1     1     3    72    35
Direct
  0.5724937166710645  0.6755459232134020  0.5672895368150523
  0.3932131287681707  0.6054504563150435  0.4426221137205426
  0.4347666715849114  0.6972517114916242  0.4406509780848458
  0.4263782721785617  0.5739424575111803  0.3900674297432065
  0.3020935773582344  0.5686792701187229  0.4361829692210037
  0.0152236130101538  0.3345051678852554  0.8392993843928743
  0.2054891758720583  0.4144509203623399  0.5461653067112588
  0.5494027079272108  0.0958978834344606  0.2030367422721489
  0.8773130853063535  0.7616377143448039  0.8682909374731458
  0.4446497328958524  0.5508784667073882  0.8172950385840758
  0.1234130853699942  0.8803101485583057  0.1308538436837637
  0.0905332732224490  0.5473926114818992  0.8021759494062194
  0.4134693074220779  0.2073861426612532  0.4602752203887920
  0.7644937295818438  0.8810131427190613  0.1407008543097874
  0.2203509158303017  0.7818440542977062  0.5371880512882159
  0.9035907734327487  0.0993568163485531  0.1301338757083025
  0.2367438721205300  0.1203411903154202  0.8671064296550952
  0.8783479132623297  0.4402468998905741  0.4553300150305513
  0.4390450751824698  0.8709572355681899  0.5459446031533175
  0.9853031147900848  0.3162479673842124  0.1684963822528321
  0.6532216093884460  0.0156325821843612  0.5102618375929661
  0.0083072479142923  0.6543147259183713  0.4970915283546740
  0.3365354523501005  0.3152916248323324  0.1648846747546283
  0.9872566285905741  0.6656584745016186  0.1639243446600613
  0.3603116016113704  0.3606991517423785  0.5022689355821509
  0.6869415677640930  0.0176904321329248  0.1733159056863693
  0.6612977425792169  0.9830389397028915  0.8441601751326475
  0.9978547846415738  0.3443152347502407  0.5025539322165554
  0.7832861945588590  0.2223451985085969  0.4638423522200112
  0.3370655304356026  0.0201722863127408  0.1637707639176937
  0.9102959772096444  0.4531397151851115  0.2040440029852982
  0.3092873300973226  0.3315830280495728  0.8294438062016424
  0.4488391102951712  0.9050545082097051  0.8046397137994346
  0.0714334013270257  0.6631693892962501  0.6661578223573333
  0.6626768378704680  0.0717561967758577  0.3383230417925214
  0.9984920175523703  0.7403811459149469  0.9993231907926112
  0.5954218721606647  0.9386140479760514  0.6752324877023016
  0.9308388329650150  0.5994437672792162  0.3312154841853341
  0.2599249132960946  0.2622913865007095  0.9986564518460767
  0.4065472144453336  0.3419895192593857  0.3332310200815322
  0.7909934314099349  0.5707419928548194  0.4663736499373683
  0.7420219810071008  0.9993143811153793  0.0072726302115018
  0.5878511608532584  0.8037927723530276  0.5418748600696339
  0.5791139863287524  0.6490396642603948  0.6783484060253661
  0.2614242116406999  0.0011172979955303  0.9980956778566895
  0.0592194678642000  0.4019740140932246  0.6709189447352881
  0.4014709230387555  0.0638457686962549  0.3331911633200721
  0.3539066440567055  0.4283576920405284  0.6693032108547066
  0.7451114297670761  0.7453944022496166  0.0054247238732564
  0.5500814407356914  0.4510859647619514  0.1985141687489108
  0.8762595243097723  0.1203325955875376  0.8718080146524740
  0.3340526493238701  0.9279676472049445  0.6680273748999833
  0.5726012288739332  0.4224584633253934  0.4540556587834800
  0.6702030486745509  0.5857154927113952  0.3326224659630798
  0.9346335021709768  0.3334367455305898  0.3347776332930631
  0.3485095347984835  0.9975516293671112  0.5011394586643182
  0.3121253614095894  0.9833459493684028  0.8315275613118881
  0.9045328093341912  0.8014005638727462  0.1291399370402851
  0.2306896820309423  0.7662210946054800  0.7908143799300671
  0.1228066819928459  0.2402662940531809  0.1341050713645916
  0.5635788842131496  0.1400216351867844  0.4570253249349954
  0.2282262686764015  0.4660569141110278  0.7855568808540883
  0.2002664792913527  0.0996457904641406  0.1219377789641357
 -0.0005084121156671  0.2583563941791240  0.0036601150098961
  0.0964865210021629  0.9019659197927682  0.8765175798638705
  0.7991814133174592  0.9019523935456004  0.8786936510230321
  0.4181612240702905  0.5751401019785196  0.5318740811189001
  0.5323396961470563  0.7694577846331998  0.7940623740813255
  0.7702180963094670  0.5311449326723082  0.2047448005050329
  0.1337098540569637  0.5617963591930281  0.5442797823352195
  0.4676415568315100  0.2330699525215658  0.2172764516561724
  0.6448615826319903  0.6370121572689282  0.4971675876488620
  0.7687916568152326  0.2339134880578428  0.2149826050889408
  0.6607187861707858  0.6836819256315823  0.8441014146515580
  0.0144209061831358  0.6862242865206819  0.8314224450204165
  0.0954169726964500  0.1973862666450064  0.8770145890688922
  0.6871123087614436  0.6662432767065162  0.1694820281076524
  0.5598226997455342  0.8978024526845245  0.7784832474121154
  0.9969284849204784  0.7728020186862109  0.8943154694711444
  0.8984752368914298  0.3334801492868480  0.2306471739804681
  0.7744624727517363  0.9995766277631594  0.1122887908010331
  0.0982320944116285  0.4316909847227924  0.5670033965039025
  0.3339053866362440  0.4444409612517167  0.7760774440474225
  0.0029708342348959  0.7720842169568385  0.1051643290374493
  0.3314785319883546  0.8950017120384419  0.7732739277373214
  0.2304685109681691  0.0006228267920459  0.1034939967242364
  0.2301082848099802  0.2288429082099982  0.1041661677871170
  0.0986735587543748  0.4375624262291105  0.7748415739886467
  0.6644311807674718  0.1114386733000786  0.4418727688230123
  0.0022980792862891  0.2275903842605339  0.1086076988108363
  0.8981008158898168  0.3351041030247917  0.4383063034195158
  0.3363479561186689  0.8950780202176083  0.5635579621145327
  0.9017266493190349  0.5665612298588157  0.4367322832207876
  0.1021058113689049  0.6664233214562210  0.7723179780241058
  0.3314115737434870  0.4386434178052605  0.5647127061008193
  0.8989915956642511  0.5623952276376470  0.2266354645149403
  0.7759640892666342  0.7736394302737033  0.1108170141615767
  0.6695423274538224  0.5553445101469954  0.4387309898229120
  0.4400780690741701  0.3336704223229029  0.4372188764858422
  0.1079778291435080  0.6649936790445061  0.5619401453183636
  0.2258660299837190  0.0009851575277711  0.8938336494023849
  0.6699962710024394  0.5584825573156350  0.2269686516434851
  0.5559996097769044  0.6647923932565285  0.7809963006198476
  0.9967613712890521  0.2272207770684648  0.8981660750047253
  0.7703434080997863  0.7734756084738732  0.8991579246321209
  0.6675058034294843  0.1053245008686603  0.2328515815607291
  0.2250383346630644  0.2281383087936229  0.8938692335618446
  0.4401539572800445  0.3346977906108538  0.2289530390342272
  0.7694078008292475  0.0003734441191798  0.9008003251658699
  0.5695151357547364  0.9055998630621176  0.5691165810945366
  0.4388818882907730  0.1034914047286647  0.2296527349702810
  0.4324949228705141  0.1022413394049307  0.4377825897757183
 
  0.00000000E+00  0.00000000E+00  0.00000000E+00
  0.00000000E+00  0.00000000E+00  0.00000000E+00
  0.00000000E+00  0.00000000E+00  0.00000000E+00
  0.00000000E+00  0.00000000E+00  0.00000000E+00
  0.00000000E+00  0.00000000E+00  0.00000000E+00
  0.00000000E+00  0.00000000E+00  0.00000000E+00
  0.00000000E+00  0.00000000E+00  0.00000000E+00
  0.00000000E+00  0.00000000E+00  0.00000000E+00
  0.00000000E+00  0.00000000E+00  0.00000000E+00
  0.00000000E+00  0.00000000E+00  0.00000000E+00
  0.00000000E+00  0.00000000E+00  0.00000000E+00
  0.00000000E+00  0.00000000E+00  0.00000000E+00
  0.00000000E+00  0.00000000E+00  0.00000000E+00
  0.00000000E+00  0.00000000E+00  0.00000000E+00
  0.00000000E+00  0.00000000E+00  0.00000000E+00
  0.00000000E+00  0.00000000E+00  0.00000000E+00
  0.00000000E+00  0.00000000E+00  0.00000000E+00
  0.00000000E+00  0.00000000E+00  0.00000000E+00
  0.00000000E+00  0.00000000E+00  0.00000000E+00
  0.00000000E+00  0.00000000E+00  0.00000000E+00
  0.00000000E+00  0.00000000E+00  0.00000000E+00
  0.00000000E+00  0.00000000E+00  0.00000000E+00
  0.00000000E+00  0.00000000E+00  0.00000000E+00
  0.00000000E+00  0.00000000E+00  0.00000000E+00
  0.00000000E+00  0.00000000E+00  0.00000000E+00
  0.00000000E+00  0.00000000E+00  0.00000000E+00
  0.00000000E+00  0.00000000E+00  0.00000000E+00
  0.00000000E+00  0.00000000E+00  0.00000000E+00
  0.00000000E+00  0.00000000E+00  0.00000000E+00
  0.00000000E+00  0.00000000E+00  0.00000000E+00
  0.00000000E+00  0.00000000E+00  0.00000000E+00
  0.00000000E+00  0.00000000E+00  0.00000000E+00
  0.00000000E+00  0.00000000E+00  0.00000000E+00
  0.00000000E+00  0.00000000E+00  0.00000000E+00
  0.00000000E+00  0.00000000E+00  0.00000000E+00
  0.00000000E+00  0.00000000E+00  0.00000000E+00
  0.00000000E+00  0.00000000E+00  0.00000000E+00
  0.00000000E+00  0.00000000E+00  0.00000000E+00
  0.00000000E+00  0.00000000E+00  0.00000000E+00
  0.00000000E+00  0.00000000E+00  0.00000000E+00
  0.00000000E+00  0.00000000E+00  0.00000000E+00
  0.00000000E+00  0.00000000E+00  0.00000000E+00
  0.00000000E+00  0.00000000E+00  0.00000000E+00
  0.00000000E+00  0.00000000E+00  0.00000000E+00
  0.00000000E+00  0.00000000E+00  0.00000000E+00
  0.00000000E+00  0.00000000E+00  0.00000000E+00
  0.00000000E+00  0.00000000E+00  0.00000000E+00
  0.00000000E+00  0.00000000E+00  0.00000000E+00
  0.00000000E+00  0.00000000E+00  0.00000000E+00
  0.00000000E+00  0.00000000E+00  0.00000000E+00
  0.00000000E+00  0.00000000E+00  0.00000000E+00
  0.00000000E+00  0.00000000E+00  0.00000000E+00
  0.00000000E+00  0.00000000E+00  0.00000000E+00
  0.00000000E+00  0.00000000E+00  0.00000000E+00
  0.00000000E+00  0.00000000E+00  0.00000000E+00
  0.00000000E+00  0.00000000E+00  0.00000000E+00
  0.00000000E+00  0.00000000E+00  0.00000000E+00
  0.00000000E+00  0.00000000E+00  0.00000000E+00
  0.00000000E+00  0.00000000E+00  0.00000000E+00
  0.00000000E+00  0.00000000E+00  0.00000000E+00
  0.00000000E+00  0.00000000E+00  0.00000000E+00
  0.00000000E+00  0.00000000E+00  0.00000000E+00
  0.00000000E+00  0.00000000E+00  0.00000000E+00
  0.00000000E+00  0.00000000E+00  0.00000000E+00
  0.00000000E+00  0.00000000E+00  0.00000000E+00
  0.00000000E+00  0.00000000E+00  0.00000000E+00
  0.00000000E+00  0.00000000E+00  0.00000000E+00
  0.00000000E+00  0.00000000E+00  0.00000000E+00
  0.00000000E+00  0.00000000E+00  0.00000000E+00
  0.00000000E+00  0.00000000E+00  0.00000000E+00
  0.00000000E+00  0.00000000E+00  0.00000000E+00
  0.00000000E+00  0.00000000E+00  0.00000000E+00
  0.00000000E+00  0.00000000E+00  0.00000000E+00
  0.00000000E+00  0.00000000E+00  0.00000000E+00
  0.00000000E+00  0.00000000E+00  0.00000000E+00
  0.00000000E+00  0.00000000E+00  0.00000000E+00
  0.00000000E+00  0.00000000E+00  0.00000000E+00
  0.00000000E+00  0.00000000E+00  0.00000000E+00
  0.00000000E+00  0.00000000E+00  0.00000000E+00
  0.00000000E+00  0.00000000E+00  0.00000000E+00
  0.00000000E+00  0.00000000E+00  0.00000000E+00
  0.00000000E+00  0.00000000E+00  0.00000000E+00
  0.00000000E+00  0.00000000E+00  0.00000000E+00
  0.00000000E+00  0.00000000E+00  0.00000000E+00
  0.00000000E+00  0.00000000E+00  0.00000000E+00
  0.00000000E+00  0.00000000E+00  0.00000000E+00
  0.00000000E+00  0.00000000E+00  0.00000000E+00
  0.00000000E+00  0.00000000E+00  0.00000000E+00
  0.00000000E+00  0.00000000E+00  0.00000000E+00
  0.00000000E+00  0.00000000E+00  0.00000000E+00
  0.00000000E+00  0.00000000E+00  0.00000000E+00
  0.00000000E+00  0.00000000E+00  0.00000000E+00
  0.00000000E+00  0.00000000E+00  0.00000000E+00
  0.00000000E+00  0.00000000E+00  0.00000000E+00
  0.00000000E+00  0.00000000E+00  0.00000000E+00
  0.00000000E+00  0.00000000E+00  0.00000000E+00
  0.00000000E+00  0.00000000E+00  0.00000000E+00
  0.00000000E+00  0.00000000E+00  0.00000000E+00
  0.00000000E+00  0.00000000E+00  0.00000000E+00
  0.00000000E+00  0.00000000E+00  0.00000000E+00
  0.00000000E+00  0.00000000E+00  0.00000000E+00
  0.00000000E+00  0.00000000E+00  0.00000000E+00
  0.00000000E+00  0.00000000E+00  0.00000000E+00
  0.00000000E+00  0.00000000E+00  0.00000000E+00
  0.00000000E+00  0.00000000E+00  0.00000000E+00
  0.00000000E+00  0.00000000E+00  0.00000000E+00
  0.00000000E+00  0.00000000E+00  0.00000000E+00
  0.00000000E+00  0.00000000E+00  0.00000000E+00
  0.00000000E+00  0.00000000E+00  0.00000000E+00
  0.00000000E+00  0.00000000E+00  0.00000000E+00
  0.00000000E+00  0.00000000E+00  0.00000000E+00
  0.00000000E+00  0.00000000E+00  0.00000000E+00
