Al  C  H  O Si 
 1.0000000000000000
    13.7295718099999995   -0.0046245600000000   -0.0014114400000000
    -6.8687391399999997   11.8909148200000008    0.0018197300000000
    -0.0015106500000000    0.0013072700000000   14.8903784300000002
   1   1   3  72  35
Cartesian
  3.2253366276269695  8.0180502518805650  8.4621773013607804
  1.1123849013366431  7.2796991573360916  6.7018541972675143
  1.0008746017007977  8.3647516050102979  6.7470565503179927
  1.7489131057817342  6.9823384018020809  5.8600610083566078
  0.1282402747872277  6.8110832006100122  6.6379218306982857
 -2.0848477776371253  3.9776579634662728 12.5001423586752480
 -0.0182859795815960  4.9113114947386638  8.1590865383068429
  6.8775625011287183  1.1344406426476996  3.0254390695583067
  6.8248111937564859  9.0429637947970001 12.8915837571059164
  2.3021991928463339  6.5612905551908387 12.1673365085257288
 -4.3556921177254573 10.4608019344878169  1.9468842951896348
 -2.5000714981173386  6.5041632226360484 11.9322916697869914
  4.2779336235625944  2.4831682047164532  6.8996936968857678
  4.4288769126554568 10.4599219323821035  2.0905084632937352
 -2.3543233696310191  9.3052693510394011  8.0172296844565167
 11.7109849648361006  1.1690246412591421  1.9340252452804767
  2.4344542534192675  1.4257081576053365 12.9024180604229262
  9.0004453796250843  5.1995460247998544  6.7946147342440488
  0.0545097584568213 10.3347993504472146  8.1409816957334318
 11.3615208875296521  3.7515842060475570  2.5007744483345435
  8.8662971596492586  0.1570035012576355  7.5643222815379865
 -4.3584923985980293  7.7521897155412143  7.3940754390859427
  2.4412367369549881  3.7473285277626900  2.4643606214448193
  8.9673934420291541  7.9095937217775303  2.4444950794446410
  2.4867084271222311  4.3294775144583078  7.4694269222087524
  9.2895965188445508  0.1946990347457367  2.5427324828050715
  2.3409007190438138 11.6820552636077917 12.5628281644502557
 -2.3851823940389769  4.1196877043198565  7.4535144002636535
  9.2708183799077979  2.6111681864554264  6.8902934754517640
  4.4861912329410574  0.2244840962838353  2.4503501915543304
  9.3762360589060698  5.3741867212360095  2.9983230233891787
  1.9861989512969713  3.9514232561371383 12.3725588760594825
 -0.0402520355993397 10.7494059293071054 11.9869442403353261
 -3.5911039212450708  7.8814039259550812  9.9232041793150110
  8.6224498893467558  0.8377971142341821  5.0136713170500791
  8.5959506539048736  8.8030943257696297 -0.0085734490041119
  1.7129430742341047 11.2200187357846524 10.0502441830270826
  8.6698656996997876  7.0804159537605544  4.9287159433559289
  1.7705333876606184  3.0980565774057180 -0.0151865664316606
  3.2585102189499215  4.0365956064534485  4.9663935271839632
  6.9375526586237610  6.8145076735509180  6.9421093935832037
  3.3466303255431802 11.8615849000898734  0.0878958005173918
  2.5709373405673199  9.5579467733598857  8.1345576153393910
  3.5352117572896429  7.6610224957844322 10.1013977635200796
  3.5778932458582764  0.0108203454661589 -0.0254720178964209
 -1.9697288892690770  4.7549822616507411  9.9847205354389992
  5.0564000827789757  0.7992799885746432  4.9678099960598763
  1.9432680092191654  5.0667210946331247  9.9724597096423189
  5.1394126773501334  8.8822030779562997  0.0617383835351200
  4.4382432919079031  5.3637793550243460  2.9551967043949978
 11.2134872581601996  1.4290974475333975 12.9676297215070111
 -1.7721504557443459 11.0495647295593535  9.9529540463928541
  4.9859361791937999  5.0296062302704696  6.7438321205567551
  5.1837065126778832  6.9779984442048431  4.9390309062571625
 10.5207725574862394  3.9816160229039346  4.9675569272803468
  4.8339392924197897 -0.0238046074311582  7.4627285577421700
 -2.4531117784499759 11.6770260913125661 12.3966406145130268
  6.9064258576512971  9.5314199016859043  1.9388917953122069
 -2.0791144088967268  9.1023281674229306 11.7541084717187143
  0.0343544295025051  2.8364938216516786  1.9996595000156956
  6.8015064216888197  1.6708930142272156  6.7832901449288663
 -0.0629074264708045  5.5157942009551766 11.6685936681290450
  2.0701086654010221  1.1789573096258354  1.8265846523566567
 -1.7672948219237588  3.0610842389429749  0.0497766546482927
 -4.8614599958208284 10.7186816990756171 13.0441291053085955
  4.8026247368372124 10.7287415700471982 13.0491138542386018
  1.7559319575306342  6.8595552708048668  7.9687446252500216
  2.0446599282245383  9.1559923386614379 11.7542663968676191
  6.9191256043819154  6.2992347882923934  3.0417969383422983
 -2.0001503414634199  6.6871360091385910  8.1338032660568782
  4.8188140332390308  2.7718609862952817  3.1949127114197973
  4.4533261704147149  7.5680989685194495  7.3804777539335209
  8.9563770566604752  2.7653623062382553  3.1762969426479222
  4.3677527411025752  8.1304320637122416 12.5724518008985395
 -4.4883401911222434  8.1491997966879932 12.4024826253641880
 -0.0344306387976282  2.3469629511193224 13.0459083732052310
  4.8535704748541937  7.9048310589656063  2.4893796389745142
  1.5292593594174726 10.6847740316815454 11.5747566971871514
  8.3839557718653452  9.1798373401723126 13.3115175859946095
 10.0412185094742537  3.9588875206694523  3.4129153347440084
  3.7615661854147029 11.8709007781734659  1.6570741487294807
 -1.6127564895861541  5.1286893628154679  8.4474244501482083
  1.5411048635653211  5.2771293648479540 11.5556008325136172
 -5.2754344655296617  9.1804312845206120  1.5713342702984030
 -1.5816408150221881 10.6370419988189866 11.5154434182768064
  3.1596738138138458 -0.0006130944327794  1.5455213155032863
  1.5871751792599114  2.7115089777203596  1.5574251919758666
 -1.6489071196520393  5.1897023047865884 11.5252443703721390
  8.3778197163911070  1.3095298723390050  6.5561214532822669
 -1.5312524567047514  2.6938666408264171  1.6142096785689948
 10.0272080110020845  3.9787853523301955  6.5142048518334121
 -1.5196822343259460 10.6444535091307682  8.3994560684575283
  8.4865296857278025  6.7134306790314113  6.5053457646779576
 -3.1648843007902165  7.9178470955988329 11.4977638025156317
  1.5433082636516717  5.2210292839033370  8.4221742127057695
  8.4736553815039422  6.6682359538176321  3.3648666547609141
  5.3389586152705819  9.1960292269524473  1.6391932826999553
  5.3799430440538547  6.6146432343554649  6.5188912409420787
  3.7713367291663373  3.9761883057110161  6.5172830032418636
 -3.0806463370316686  7.9045503926536318  8.3772677349835085
  3.1011399087692646  0.0055529466128088 13.3087321806604031
  5.3559851556784590  6.6368833199799653  3.3675986000022435
  3.0766767810492039  7.8945588195024978 11.6141329281886456
 12.1358847306592139  2.6953523358480931 13.3661321159391662
  5.2781275405760359  9.1989279225265204 13.3651249738577960
  8.4406298666368524  1.2400208171323595  3.4460140196175901
  1.5336920587483980  2.7068423980625620 13.3106152346195845
  3.7422014132979053  3.9734493932365398  3.4046307238608957
 10.5804853033776958 -0.0017868224560918 13.3931420476093450
  1.6043398206323933 10.7717018998762732  8.4838916435449327
  5.3074315429389083  1.2347273506496985  3.4170059489972653
  5.2521838286322575  1.2336206382937982  6.5279910749684875
