Al  C  H  O Si                          
   1.00000000000000     
    13.7295718099999995   -0.0046245600000000   -0.0014114400000000
    -6.8687391399999997   11.8909148200000008    0.0018197300000000
    -0.0015106500000000    0.0013072700000000   14.8903784300000002
   Al   C    H    O    Si
     1     1     3    72    35
Direct
  0.5659416499999992  0.6651566399999993  0.5671563100000014
  0.5746682500000020  0.7941174600000025  0.4178253199999986
  0.6193427700000029  0.8798563400000035  0.3911681900000019
  0.6163467000000011  0.7479708199999990  0.3961043700000033
  0.4857435600000031  0.7500868400000016  0.3981969000000021
  0.0190433400000032  0.3332338900000025  0.8355430399999975
  0.2093160499999982  0.4199828599999975  0.5376109700000029
  0.5502460900000017  0.0941721700000002  0.2043845899999965
  0.8804276999999985  0.7613654600000004  0.8661485100000021
  0.4533917299999999  0.5464913599999974  0.7988044900000020
  0.1251066900000026  0.8781043899999972  0.1327567000000016
  0.0944871399999982  0.5474757499999967  0.8021730500000004
  0.4187162699999973  0.2104677600000002  0.4632678400000003
  0.7653680299999976  0.8814874799999970  0.1370191000000034
  0.2173343400000007  0.7832012000000006  0.5348707799999985
  0.9021902300000022  0.0999335599999966  0.1236254599999995
  0.2421294900000035  0.1212481100000034  0.8667329000000024
  0.8780598700000013  0.4386550899999975  0.4529980200000026
  0.4356777799999989  0.8690550000000030  0.5470877500000029
  0.9843606100000031  0.3156425099999964  0.1665447999999969
  0.6516619399999968  0.0149918199999988  0.5118661699999976
  0.0041605799999971  0.6530167399999982  0.5000721099999978
  0.3363475800000018  0.3141845500000002  0.1656774100000007
  0.9851281500000013  0.6628080799999978  0.1622310500000026
  0.3546471000000011  0.3559306499999977  0.4999524899999983
  0.6873594600000033  0.0162802799999966  0.1724101399999967
  0.6680996899999982  0.9840600899999998  0.8348160600000014
  0.9980772500000015  0.3447692100000026  0.5044478900000016
  0.7856403700000030  0.2205929200000014  0.4631739599999989
  0.3387900900000034  0.0192479700000021  0.1639090600000017
  0.9077190699999989  0.4510871000000023  0.2053464500000004
  0.3154166400000022  0.3347953299999986  0.8359325799999979
  0.4561608899999996  0.9112939600000018  0.7946367699999968
  0.0751299200000020  0.6654446699999994  0.6672170699999995
  0.6632190899999983  0.0676247000000032  0.3388924400000022
  0.0002134200000015  0.7430192599999970  0.9993766600000029
  0.5947204400000032  0.9090697199999980  0.6702475299999975
  0.9369185400000006  0.6016948899999974  0.3314165399999993
  0.2584527300000019  0.2570440399999967  0.0009707299999988
  0.4082840800000014  0.3372486299999977  0.3325853099999989
  0.7895343599999975  0.5673915300000019  0.4616541800000036
  0.7366935399999974  0.9965826800000031  0.0036235199999979
  0.5813153200000016  0.7994636900000032  0.5174871299999992
  0.6027422599999994  0.6900295200000031  0.6777100700000034
  0.2611144500000009  0.0005162499999969  0.9992970699999972
  0.0703317999999982  0.4066932200000011  0.6695422700000009
  0.4034860399999971  0.0689555399999975  0.3326381899999973
  0.3316750700000028  0.4017353400000019  0.6680188500000028
  0.7496425400000035  0.7436255900000006  0.0048639999999978
  0.5504818000000000  0.4525864900000016  0.1990292600000032
  0.8798154799999978  0.1201426200000029  0.8732017800000023
  0.3305630199999996  0.9287382500000021  0.6667059700000024
  0.5703855599999983  0.4273309800000007  0.4562388700000000
  0.6663257299999970  0.5902770200000020  0.3338625299999975
  0.9369413499999979  0.3319833099999983  0.3346021999999991
  0.3506264199999976  0.9984610699999976  0.4991097799999977
  0.3160991499999994  0.9820471999999967  0.8338614299999989
  0.9067356099999984  0.8027952699999972  0.1307655399999987
  0.2366916900000007  0.7661305600000006  0.7902005799999969
  0.1213869700000032  0.2374387799999980  0.1356216200000020
  0.5654755799999975  0.1401674299999982  0.4560601499999990
  0.2348145200000005  0.4689985600000028  0.7904843499999998
  0.1998763400000030  0.0971518799999984  0.1257588499999969
  0.0063682899999975  0.2626641599999999  0.0016027699999981
  0.0996235799999994  0.9030721299999982  0.8752155500000001
  0.8010368500000027  0.9006000500000013  0.8790949500000025
  0.4258706900000035  0.5698298100000017  0.5480822500000002
  0.5275225500000005  0.7648683399999996  0.8087526199999999
  0.7699616700000007  0.5322176800000022  0.2108374999999967
  0.1323274599999991  0.5631862799999965  0.5421095000000022
  0.4712097000000028  0.2343777500000002  0.2122583399999982
  0.6565166700000020  0.6455394299999995  0.5010888099999988
  0.7694154200000014  0.2319512199999991  0.2170484999999971
  0.6622101900000033  0.6814664999999991  0.8451752100000007
  0.0205889900000003  0.6875043499999975  0.8331978200000023
  0.0987157900000000  0.1959598500000013  0.8758868500000005
  0.6888975399999993  0.6678127300000014  0.1696803800000026
  0.5610657000000003  0.8910382899999973  0.7777316600000006
  0.0003421999999986  0.7739450099999985  0.8938073699999975
  0.8992451399999979  0.3326493599999978  0.2310212699999994
  0.7733370099999988  0.9990773399999995  0.1081270299999986
  0.1038506000000012  0.4348676600000019  0.5641770300000033
  0.3340013700000029  0.4385771099999971  0.7720659900000015
  0.0038839999999993  0.7718328400000019  0.1056892900000008
  0.3339505799999998  0.8958917900000003  0.7714909600000013
  0.2309252100000023  0.9992031100000034  0.1050058599999986
  0.2291313400000021  0.2260615599999980  0.1065179499999971
  0.1056078900000017  0.4391538900000000  0.7741465399999967
  0.6659928999999991  0.1121651300000011  0.4412321699999993
  0.0034482699999998  0.2284064299999997  0.1063769900000011
  0.9006597999999997  0.3350152499999979  0.4381413699999968
  0.3325400700000003  0.8951553200000006  0.5625111000000018
  0.9021942999999979  0.5655589500000033  0.4359252400000031
  0.1068327099999991  0.6667809699999978  0.7728528000000026
  0.3332396899999992  0.4400758700000011  0.5634509100000002
  0.8992612199999996  0.5620553899999976  0.2279876500000029
  0.7782516999999984  0.7739442199999971  0.1101164199999971
  0.6696045300000009  0.5580051100000034  0.4394144899999972
  0.4387882400000009  0.3345800000000025  0.4382672500000027
  0.1066969399999991  0.6649409400000010  0.5619176699999997
  0.2289592600000034  0.0012770499999988  0.8942266199999978
  0.6693635600000007  0.5602716499999971  0.2289361799999980
  0.5616138199999980  0.6697546700000032  0.7799688300000014
  0.0014634899999990  0.2279156700000016  0.8965290499999981
  0.7731667400000006  0.7720426200000006  0.8985032699999991
  0.6683304499999991  0.1034387099999989  0.2330150800000013
  0.2284056100000029  0.2276947599999986  0.8951292100000003
  0.4415202100000002  0.3343375999999978  0.2281903299999968
  0.7714742000000001  0.9997218099999969  0.8982582900000011
  0.5647732799999972  0.9026800999999978  0.5655100299999987
  0.4407638699999978  0.1049702800000034  0.2285214099999990
  0.4345906499999970  0.1052015499999968  0.4373682499999987
 
  0.00000000E+00  0.00000000E+00  0.00000000E+00
  0.00000000E+00  0.00000000E+00  0.00000000E+00
  0.00000000E+00  0.00000000E+00  0.00000000E+00
  0.00000000E+00  0.00000000E+00  0.00000000E+00
  0.00000000E+00  0.00000000E+00  0.00000000E+00
  0.00000000E+00  0.00000000E+00  0.00000000E+00
  0.00000000E+00  0.00000000E+00  0.00000000E+00
  0.00000000E+00  0.00000000E+00  0.00000000E+00
  0.00000000E+00  0.00000000E+00  0.00000000E+00
  0.00000000E+00  0.00000000E+00  0.00000000E+00
  0.00000000E+00  0.00000000E+00  0.00000000E+00
  0.00000000E+00  0.00000000E+00  0.00000000E+00
  0.00000000E+00  0.00000000E+00  0.00000000E+00
  0.00000000E+00  0.00000000E+00  0.00000000E+00
  0.00000000E+00  0.00000000E+00  0.00000000E+00
  0.00000000E+00  0.00000000E+00  0.00000000E+00
  0.00000000E+00  0.00000000E+00  0.00000000E+00
  0.00000000E+00  0.00000000E+00  0.00000000E+00
  0.00000000E+00  0.00000000E+00  0.00000000E+00
  0.00000000E+00  0.00000000E+00  0.00000000E+00
  0.00000000E+00  0.00000000E+00  0.00000000E+00
  0.00000000E+00  0.00000000E+00  0.00000000E+00
  0.00000000E+00  0.00000000E+00  0.00000000E+00
  0.00000000E+00  0.00000000E+00  0.00000000E+00
  0.00000000E+00  0.00000000E+00  0.00000000E+00
  0.00000000E+00  0.00000000E+00  0.00000000E+00
  0.00000000E+00  0.00000000E+00  0.00000000E+00
  0.00000000E+00  0.00000000E+00  0.00000000E+00
  0.00000000E+00  0.00000000E+00  0.00000000E+00
  0.00000000E+00  0.00000000E+00  0.00000000E+00
  0.00000000E+00  0.00000000E+00  0.00000000E+00
  0.00000000E+00  0.00000000E+00  0.00000000E+00
  0.00000000E+00  0.00000000E+00  0.00000000E+00
  0.00000000E+00  0.00000000E+00  0.00000000E+00
  0.00000000E+00  0.00000000E+00  0.00000000E+00
  0.00000000E+00  0.00000000E+00  0.00000000E+00
  0.00000000E+00  0.00000000E+00  0.00000000E+00
  0.00000000E+00  0.00000000E+00  0.00000000E+00
  0.00000000E+00  0.00000000E+00  0.00000000E+00
  0.00000000E+00  0.00000000E+00  0.00000000E+00
  0.00000000E+00  0.00000000E+00  0.00000000E+00
  0.00000000E+00  0.00000000E+00  0.00000000E+00
  0.00000000E+00  0.00000000E+00  0.00000000E+00
  0.00000000E+00  0.00000000E+00  0.00000000E+00
  0.00000000E+00  0.00000000E+00  0.00000000E+00
  0.00000000E+00  0.00000000E+00  0.00000000E+00
  0.00000000E+00  0.00000000E+00  0.00000000E+00
  0.00000000E+00  0.00000000E+00  0.00000000E+00
  0.00000000E+00  0.00000000E+00  0.00000000E+00
  0.00000000E+00  0.00000000E+00  0.00000000E+00
  0.00000000E+00  0.00000000E+00  0.00000000E+00
  0.00000000E+00  0.00000000E+00  0.00000000E+00
  0.00000000E+00  0.00000000E+00  0.00000000E+00
  0.00000000E+00  0.00000000E+00  0.00000000E+00
  0.00000000E+00  0.00000000E+00  0.00000000E+00
  0.00000000E+00  0.00000000E+00  0.00000000E+00
  0.00000000E+00  0.00000000E+00  0.00000000E+00
  0.00000000E+00  0.00000000E+00  0.00000000E+00
  0.00000000E+00  0.00000000E+00  0.00000000E+00
  0.00000000E+00  0.00000000E+00  0.00000000E+00
  0.00000000E+00  0.00000000E+00  0.00000000E+00
  0.00000000E+00  0.00000000E+00  0.00000000E+00
  0.00000000E+00  0.00000000E+00  0.00000000E+00
  0.00000000E+00  0.00000000E+00  0.00000000E+00
  0.00000000E+00  0.00000000E+00  0.00000000E+00
  0.00000000E+00  0.00000000E+00  0.00000000E+00
  0.00000000E+00  0.00000000E+00  0.00000000E+00
  0.00000000E+00  0.00000000E+00  0.00000000E+00
  0.00000000E+00  0.00000000E+00  0.00000000E+00
  0.00000000E+00  0.00000000E+00  0.00000000E+00
  0.00000000E+00  0.00000000E+00  0.00000000E+00
  0.00000000E+00  0.00000000E+00  0.00000000E+00
  0.00000000E+00  0.00000000E+00  0.00000000E+00
  0.00000000E+00  0.00000000E+00  0.00000000E+00
  0.00000000E+00  0.00000000E+00  0.00000000E+00
  0.00000000E+00  0.00000000E+00  0.00000000E+00
  0.00000000E+00  0.00000000E+00  0.00000000E+00
  0.00000000E+00  0.00000000E+00  0.00000000E+00
  0.00000000E+00  0.00000000E+00  0.00000000E+00
  0.00000000E+00  0.00000000E+00  0.00000000E+00
  0.00000000E+00  0.00000000E+00  0.00000000E+00
  0.00000000E+00  0.00000000E+00  0.00000000E+00
  0.00000000E+00  0.00000000E+00  0.00000000E+00
  0.00000000E+00  0.00000000E+00  0.00000000E+00
  0.00000000E+00  0.00000000E+00  0.00000000E+00
  0.00000000E+00  0.00000000E+00  0.00000000E+00
  0.00000000E+00  0.00000000E+00  0.00000000E+00
  0.00000000E+00  0.00000000E+00  0.00000000E+00
  0.00000000E+00  0.00000000E+00  0.00000000E+00
  0.00000000E+00  0.00000000E+00  0.00000000E+00
  0.00000000E+00  0.00000000E+00  0.00000000E+00
  0.00000000E+00  0.00000000E+00  0.00000000E+00
  0.00000000E+00  0.00000000E+00  0.00000000E+00
  0.00000000E+00  0.00000000E+00  0.00000000E+00
  0.00000000E+00  0.00000000E+00  0.00000000E+00
  0.00000000E+00  0.00000000E+00  0.00000000E+00
  0.00000000E+00  0.00000000E+00  0.00000000E+00
  0.00000000E+00  0.00000000E+00  0.00000000E+00
  0.00000000E+00  0.00000000E+00  0.00000000E+00
  0.00000000E+00  0.00000000E+00  0.00000000E+00
  0.00000000E+00  0.00000000E+00  0.00000000E+00
  0.00000000E+00  0.00000000E+00  0.00000000E+00
  0.00000000E+00  0.00000000E+00  0.00000000E+00
  0.00000000E+00  0.00000000E+00  0.00000000E+00
  0.00000000E+00  0.00000000E+00  0.00000000E+00
  0.00000000E+00  0.00000000E+00  0.00000000E+00
  0.00000000E+00  0.00000000E+00  0.00000000E+00
  0.00000000E+00  0.00000000E+00  0.00000000E+00
  0.00000000E+00  0.00000000E+00  0.00000000E+00
  0.00000000E+00  0.00000000E+00  0.00000000E+00
  0.00000000E+00  0.00000000E+00  0.00000000E+00
  0.00000000E+00  0.00000000E+00  0.00000000E+00
