 H  C 
 1.0000000000000000
    16.0000000000000000    0.0000000000000000    0.0000000000000000
     0.0000000000000000   16.0000000000000000    0.0000000000000000
     0.0000000000000000    0.0000000000000000   16.0000000000000000
   2   1
Cartesian
  8.2980406000000002  7.2322932000000000  8.0000000000000000
  8.2980406000000002  8.7677067999999991  8.0000000000000000
  7.7019593999999998  8.0000000000000000  8.0000000000000000
