Al Si  O 
 1.0000000000000000
    13.7295718138195095   -0.0046245600172939   -0.0014114421969975
    -6.8687391429947304   11.8909148165505947    0.0018197327751748
    -0.0015106504129000    0.0013072721429291   14.8903784328561191
   1  35  72
Cartesian
  3.1376738650411760  7.9288722635439344  8.3703560468231242
 -1.5674076692177703 10.6389286208602378  8.3620834246739868
 -1.5655628852861583  2.7117003287718164  1.5709484187850697
 -1.5699148418176727 10.6438319387733014 11.4938966753649296
  5.2993103516392619  9.1847569109885470  1.5689006368820735
  5.3054730074888399  1.2592854177073771  6.5282241199498090
  8.4472198934006766  1.2476062134397279  6.5198670220214092
 -1.5727340585691274  5.2162933589488203 11.4888097384983556
  1.5629865081694656  2.7048430846178344  1.5711311252955273
 -3.7308057267663965 11.8870197887272528  1.5649475655976699
  8.4298132033872992  6.6676277676705107  6.5260609269730798
  1.5585283727061929 10.6465676534453131 11.4904650363823766
 -5.3020504794667014  9.1796681703656855  1.5666086664294472
  1.5642586114881460  5.2180024902173940 11.4966314279024715
 -1.5601421731502914  5.2173261161934459  8.3674938307916484
  3.7266708594929336 11.8806906771172915  1.5670008653860132
  8.4221115347753042  9.1737241059918446 13.3237809398447169
  9.9951408506149981  3.9620873128096945  3.3922868042951433
  9.9962513471414383  3.9593437003581951  6.5262010404811752
 -3.1365686131756081  7.9328771736360117 11.4911763305691395
  3.1274389463154542  7.9280603307151383 11.4956436869310394
  8.4285356962211200  6.6656089344850340  3.3960692173388107
  1.5666092187514136 10.6379962263064076  8.3656241437029202
 10.6001069458924881  0.0024582227355401 13.3195303647771777
  3.7289976283862418  3.9609413097325064  3.4044595798839890
  1.5623931933916217  2.7125837351442779 13.3301174556572910
  8.4332164370109215  1.2450077625325768  3.3942898765944740
  5.3001273056012508  9.1870413872333430 13.3198139984862678
  5.2976130823946921  1.2527503347642568  3.4021273335285152
  1.5703325522711971  5.2119380496030363  8.3700100964211952
 12.1569613492981201  2.7137877823741472 13.3289902691019204
  5.2935361730036563  6.6758234581761551  3.4004663792934129
  3.1311992379933486  0.0071217980694479 13.3246918476654237
 -3.1292022057113513  7.9356647530688669  8.3642368215513088
  3.7376314781169997  3.9619753251475749  6.5325683979836811
  5.3011156862792941  6.6881390982500815  6.5241563341080475
 -2.0431786293446321  9.1088957785729505 11.7742517970351841
 -0.0010098676670619  2.8385022246417693  1.9723841783176861
  6.8648288465513305  9.5445796889044452  1.8502251258136180
  6.8783438735739333  1.6100993307146820  6.7753225243533661
 -0.0051043656185936  5.5747958416729508 11.7568235430834420
  2.0407745196549385  1.1696360999527826  1.8423003586329190
 11.9384768359999374  3.0965110092242467  0.0050203139501275
  2.0333662043047296  9.1091422509983726 11.7532576987024449
 -4.8263556643457353 10.7136936977729125 13.0620720724971733
  4.8275939378629698 10.7211651864401531 13.0328781011741270
  2.0474644662970283  6.7473130064337337  8.0989192156814340
 -0.0058338970804769  2.3600325714473223 13.0563025853005517
  6.8594987451611393  6.3071976677897306  3.1344198870147926
 -2.0270129862741810  6.7595562636532822  8.1165980289548951
  4.8266811985774716  2.7885728494265289  3.1213705759094279
  4.4540586560903668  7.7143187829088147  7.4494075501151809
  8.9092900743979691  2.7786003214021489  3.1132940585267126
  4.4385226115123499  8.1491437195617600 12.4217182379097366
 -4.4525259897896348  8.1467959498651439 12.4129518558244154
 -2.4217953615556276 11.6787883816083902 12.4054355660292934
  4.8336184159703182  7.9184493521188459  2.4672681692575962
  4.8457634189239931  0.0079787120607661  7.4491684754805201
 -2.0401839763449705  3.9744455728249219 12.4191614782870321
  4.4547808733376559  0.2186026711682212  2.4815370647912709
 -2.4117887813117709  4.2023507112074938  7.4346997827027810
  2.4079835225997601 11.6732843692898065 12.4123190341030902
  9.2658739929133596  0.2097561168509719  2.4658573476838570
  2.4214140726010380  4.1815531340809500  7.4527906980853880
  8.8906557967579065  7.9202858944391350  2.4803232977596847
  2.4110359209259751  3.7386884809439356  2.4874779187325782
 -4.4402343743591368  7.6965520864109962  7.4427224911338321
  2.0328205667838439 11.8830308053696214  7.4394187837300887
 11.3204861235715857  3.7449353370829823  2.4850133989515633
 -0.0001772101693299 10.2756390211683879  8.0968652773219727
  9.3502137798203666  2.5292698482373752  6.9325429379178809
  8.8918472583523833  5.1277243190429944  6.8010319196861762
 11.6793276048984236  1.1749960588902812  1.8435276975130466
 -2.4715319538499050  9.3582165511936353  7.9494757072822635
  4.3911042399597457 10.4618207734913131  1.9824481316473579
  4.4170422612650677  2.5493188088005767  6.9449814796007958
 -2.4740945535811441  6.5055334525884145 11.8765216023688893
 -4.3864163020630373 10.4580560808321223  1.9576011675336915
  2.4596771919001399  6.5075134151254552 11.8976305418675601
  6.8609185237822299  9.0413163079045020 12.9086457863801929
  6.8641286790770044  1.1116598801610134  3.0155240921364257
  0.0051668290319455  5.0780372264770826  7.9704713054074503
  2.4609362717667769  1.4269018797734825 12.9219693304810850
  9.3282381569644244  5.3818517875107528  2.9854748024869324
  2.4698349731264844  9.3510714162153956  7.9749535709493955
  2.0292385911296789  3.9705107859567130 12.4208809508108899
  5.0739309968294961  7.0867722301418512  4.9613961625505913
  4.8222449025867045  5.1521529124319887  6.7860478270577289
 -1.7979826585560432 11.0227595599317887  9.9272284043750201
 11.2529067066375443  1.4315476554076072 12.9240217266808735
  4.3842100060243645  5.3910255600922223  3.0152645217006477
  5.0825375563316175  8.8159163204381326 14.8892550856628052
  1.7973930860355964  4.8218253457672429  9.9344809552323223
  5.0560767268726172  0.8715111190449143  4.9666178096131350
 -1.7944603123994147  4.8098783345156031  9.9271406032761060
  3.5855840646680903  0.0111721934801456 14.8883348398316500
 10.4360635766919323  3.9636341476224581  4.9591571826178464
  3.5904517285707795  7.9233868439742725  9.9343701724595448
  3.2925802723628412 11.8746908091459922 14.8884461868719633
  6.8662807286948819  6.8188502593918026  6.9245664722872480
  3.2809156704779388  3.9431641264697199  4.9698408678717581
  1.7883532404564866  3.0931302837219525  0.0062173477392009
  8.6620393461543213  7.0508283003386438  4.9607992420179219
  1.7861033480664692 11.0427205606828540  9.9274736755324380
  8.6319913810192723  8.7807700457844664 14.8896705268669702
  8.6837154400331311  0.8592875575048879  4.9563945550744259
 -3.5881264065703129  7.9523521441201170  9.9266876110637927
 -0.0054216007390453 10.7836042870830298 11.8923507916639366
