Al  C  H  O Si                          
   1.00000000000000     
    13.7295718099999995   -0.0046245600000000   -0.0014114400000000
    -6.8687391399999997   11.8909148200000008    0.0018197300000000
    -0.0015106500000000    0.0013072700000000   14.8903784300000002
   Al   C    H    O    Si
     1     1     3    72    35
Direct
  0.5660563617474905  0.6650498830025677  0.5667646510009193
  0.5607740133402626  0.7874451331216942  0.4182317472811768
  0.6033317046072687  0.8719580707255217  0.3889937186811046
  0.6000181662768325  0.7399966312057551  0.3938726682673786
  0.4702651767930988  0.7430256636136486  0.4040705009897932
  0.0199879796385332  0.3337191489438724  0.8357351458555879
  0.2093458037078831  0.4193625601315458  0.5375950572972495
  0.5510696833565140  0.0949377416176454  0.2039336533691115
  0.8814908534413081  0.7620783032829858  0.8660224692845225
  0.4545300643847503  0.5468400849060925  0.7975306272494610
  0.1256021569503424  0.8783293695201917  0.1332455034745577
  0.0955276075294139  0.5480401013551625  0.8026215245472167
  0.4207075412965047  0.2114496497638051  0.4622214738659617
  0.7657472398288893  0.8815562785474660  0.1364857324256536
  0.2177604417938408  0.7837522581331710  0.5351865732884120
  0.9027100172045323  0.1000962738808698  0.1238227343871239
  0.2432565053564683  0.1218649134942792  0.8666854570695599
  0.8777464113249216  0.4386091058133442  0.4517192922734733
  0.4362782064126985  0.8717938355902953  0.5479219850287314
  0.9850044698572819  0.3160380674244808  0.1664343407000214
  0.6527749474555449  0.0139697829692235  0.5108962399540532
  0.0046699010330335  0.6524743831426948  0.5001936591849372
  0.3368348419123158  0.3145309116687467  0.1659442988146357
  0.9858796274978017  0.6629744213700348  0.1620217529976609
  0.3542150226354956  0.3544637599337748  0.5002418567127398
  0.6878187648116744  0.0165762521172182  0.1720436257220499
  0.6686974410453129  0.9843418542150818  0.8346465642789292
  0.9979694826111861  0.3455381050273291  0.5050337009157964
  0.7857090413248808  0.2205714805044002  0.4632200487822367
  0.3394013815499086  0.0194098511728346  0.1640084064216143
  0.9090899894241016  0.4516984421955502  0.2065006495738675
  0.3165943969646310  0.3357674589871174  0.8368967016160096
  0.4569699329392772  0.9116876643444949  0.7934764350227386
  0.0757946932148405  0.6653435883849302  0.6673689765668029
  0.6636229536082502  0.0678204873126112  0.3384513623040727
  0.0013841850598142  0.7438762169993811  0.9993128391500644
  0.5962032276060197  0.9096931389581591  0.6698324305989332
  0.9368260770297381  0.6030138236820038  0.3314679183648237
  0.2586853858222485  0.2566250328721916  0.0013877752875568
  0.4096986306557905  0.3391933718855098  0.3326557251228623
  0.7900553428393601  0.5681992200851950  0.4623561102900722
  0.7375850213118852  0.9973084828996950  0.0033873410687496
  0.5768714791122833  0.7973018988294290  0.5171429419200919
  0.6043444441401258  0.6909219485750721  0.6770091041446417
  0.2611990450635508  0.0011011683937575  0.9997541422285569
  0.0713594222310131  0.4074258064386082  0.6698442520547376
  0.4043147244772882  0.0682520841786665  0.3326554962992286
  0.3307129875766871  0.4001002446391020  0.6684119515538338
  0.7501989499193967  0.7435804965595831  0.0045172923622032
  0.5512658442560452  0.4525621272336093  0.1982708727575531
  0.8806320076140676  0.1204733794213340  0.8728292756066314
  0.3297090149126052  0.9298395549489060  0.6671589978224708
  0.5707841065701885  0.4287826584998496  0.4571753006342270
  0.6672609151627583  0.5897410625500423  0.3332985437149546
  0.9374982983244389  0.3310898265994339  0.3348415413109362
  0.3496040122875925  0.9993190453655397  0.4993183800831804
  0.3175224423804417  0.9825008199770440  0.8349174799984590
  0.9072122888895352  0.8028884999823854  0.1305796856438598
  0.2375153055509398  0.7667029985293418  0.7902419604564521
  0.1218617885362967  0.2377009012127105  0.1359299994804156
  0.5653283368397114  0.1385046380975645  0.4567925546127464
  0.2358561205806502  0.4696216231866449  0.7907959562509871
  0.2003018781910788  0.0973639540577981  0.1267411699204467
  0.0068833100583450  0.2625271011289732  0.0016246894102298
  0.1007167916128548  0.9036583156752196  0.8749252239216635
  0.8016372134050633  0.9009157168774830  0.8790211151715674
  0.4262027537745285  0.5681990230943316  0.5487489215615691
  0.5283875638202193  0.7651757590933532  0.8080635723351663
  0.7707105499114185  0.5321400233543784  0.2099236250009546
  0.1338174332840369  0.5637936288828983  0.5422203244196215
  0.4712841335858557  0.2344073280553357  0.2130540109873366
  0.6571173805766380  0.6476685914684036  0.4994401181366019
  0.7701966391128282  0.2324008959024371  0.2168769323893289
  0.6632089603959382  0.6819199172410810  0.8445783270786729
  0.0214029023512820  0.6879601939390833  0.8332157735390477
  0.0996085472736413  0.1963429567818523  0.8758237432156852
  0.6894502240536056  0.6678641494579968  0.1693514294623767
  0.5619723401327026  0.8914288447765241  0.7772184697625943
  0.0013753499834988  0.7746082319552469  0.8937147131271080
  0.9000815390196646  0.3328144457087406  0.2313102304608199
  0.7738975024439768  0.9993298806982015  0.1079268756304472
  0.1044525370986619  0.4351661586993397  0.5643818695844649
  0.3346698445082688  0.4387045436191485  0.7721781649871694
  0.0045546066991361  0.7721396609397611  0.1056892895832509
  0.3346008812579985  0.8965789172347409  0.7716079694763925
  0.2313068941611242  0.9995007464236469  0.1055415121593405
  0.2295408177114198  0.2261588953826849  0.1069918276341458
  0.1066151494099125  0.4397349473535357  0.7744674848305614
  0.6664708084642857  0.1116134533655273  0.4410225892230309
  0.0039383239362283  0.2285493432422075  0.1064670161780691
  0.9007463722536765  0.3350095319602079  0.4381207627209422
  0.3322564675236331  0.8964821988362578  0.5629838291176917
  0.9023594372284679  0.5659225637315454  0.4358921530140166
  0.1077030334177975  0.6671920971856489  0.7730131343569278
  0.3329554488309780  0.4386624013924720  0.5638067857424679
  0.9000203538836952  0.5625545000412699  0.2280397710965522
  0.7787452490093221  0.7740068651911223  0.1097798742889092
  0.6703705638729510  0.5590950387277995  0.4392252688035253
  0.4396880447842386  0.3353319795272666  0.4382898042775301
  0.1074558847819022  0.6650872025061416  0.5620717758811663
  0.2298978606422684  0.0018872225722737  0.8945212263311945
  0.6701541920783635  0.5601780017158807  0.2283104056580169
  0.5627924053409142  0.6702884818035085  0.7791877934113633
  0.0022387186398464  0.2281669386812778  0.8964851399037483
  0.7739740680166556  0.7723877472593401  0.8982148548834779
  0.6690008561805565  0.1038748929506195  0.2326423189437880
  0.2292305766724556  0.2280653477384987  0.8954105647882925
  0.4422025492917457  0.3348687603247844  0.2282804000341449
  0.7722029194960582  1.0001624166758534  0.8980272568482652
  0.5647699675029590  0.9029747247143284  0.5654110552764334
  0.4413581527585666  0.1050832769348878  0.2286249646963396
  0.4350736339311727  0.1051109670977344  0.4373071767130933
 
  0.00000000E+00  0.00000000E+00  0.00000000E+00
  0.00000000E+00  0.00000000E+00  0.00000000E+00
  0.00000000E+00  0.00000000E+00  0.00000000E+00
  0.00000000E+00  0.00000000E+00  0.00000000E+00
  0.00000000E+00  0.00000000E+00  0.00000000E+00
  0.00000000E+00  0.00000000E+00  0.00000000E+00
  0.00000000E+00  0.00000000E+00  0.00000000E+00
  0.00000000E+00  0.00000000E+00  0.00000000E+00
  0.00000000E+00  0.00000000E+00  0.00000000E+00
  0.00000000E+00  0.00000000E+00  0.00000000E+00
  0.00000000E+00  0.00000000E+00  0.00000000E+00
  0.00000000E+00  0.00000000E+00  0.00000000E+00
  0.00000000E+00  0.00000000E+00  0.00000000E+00
  0.00000000E+00  0.00000000E+00  0.00000000E+00
  0.00000000E+00  0.00000000E+00  0.00000000E+00
  0.00000000E+00  0.00000000E+00  0.00000000E+00
  0.00000000E+00  0.00000000E+00  0.00000000E+00
  0.00000000E+00  0.00000000E+00  0.00000000E+00
  0.00000000E+00  0.00000000E+00  0.00000000E+00
  0.00000000E+00  0.00000000E+00  0.00000000E+00
  0.00000000E+00  0.00000000E+00  0.00000000E+00
  0.00000000E+00  0.00000000E+00  0.00000000E+00
  0.00000000E+00  0.00000000E+00  0.00000000E+00
  0.00000000E+00  0.00000000E+00  0.00000000E+00
  0.00000000E+00  0.00000000E+00  0.00000000E+00
  0.00000000E+00  0.00000000E+00  0.00000000E+00
  0.00000000E+00  0.00000000E+00  0.00000000E+00
  0.00000000E+00  0.00000000E+00  0.00000000E+00
  0.00000000E+00  0.00000000E+00  0.00000000E+00
  0.00000000E+00  0.00000000E+00  0.00000000E+00
  0.00000000E+00  0.00000000E+00  0.00000000E+00
  0.00000000E+00  0.00000000E+00  0.00000000E+00
  0.00000000E+00  0.00000000E+00  0.00000000E+00
  0.00000000E+00  0.00000000E+00  0.00000000E+00
  0.00000000E+00  0.00000000E+00  0.00000000E+00
  0.00000000E+00  0.00000000E+00  0.00000000E+00
  0.00000000E+00  0.00000000E+00  0.00000000E+00
  0.00000000E+00  0.00000000E+00  0.00000000E+00
  0.00000000E+00  0.00000000E+00  0.00000000E+00
  0.00000000E+00  0.00000000E+00  0.00000000E+00
  0.00000000E+00  0.00000000E+00  0.00000000E+00
  0.00000000E+00  0.00000000E+00  0.00000000E+00
  0.00000000E+00  0.00000000E+00  0.00000000E+00
  0.00000000E+00  0.00000000E+00  0.00000000E+00
  0.00000000E+00  0.00000000E+00  0.00000000E+00
  0.00000000E+00  0.00000000E+00  0.00000000E+00
  0.00000000E+00  0.00000000E+00  0.00000000E+00
  0.00000000E+00  0.00000000E+00  0.00000000E+00
  0.00000000E+00  0.00000000E+00  0.00000000E+00
  0.00000000E+00  0.00000000E+00  0.00000000E+00
  0.00000000E+00  0.00000000E+00  0.00000000E+00
  0.00000000E+00  0.00000000E+00  0.00000000E+00
  0.00000000E+00  0.00000000E+00  0.00000000E+00
  0.00000000E+00  0.00000000E+00  0.00000000E+00
  0.00000000E+00  0.00000000E+00  0.00000000E+00
  0.00000000E+00  0.00000000E+00  0.00000000E+00
  0.00000000E+00  0.00000000E+00  0.00000000E+00
  0.00000000E+00  0.00000000E+00  0.00000000E+00
  0.00000000E+00  0.00000000E+00  0.00000000E+00
  0.00000000E+00  0.00000000E+00  0.00000000E+00
  0.00000000E+00  0.00000000E+00  0.00000000E+00
  0.00000000E+00  0.00000000E+00  0.00000000E+00
  0.00000000E+00  0.00000000E+00  0.00000000E+00
  0.00000000E+00  0.00000000E+00  0.00000000E+00
  0.00000000E+00  0.00000000E+00  0.00000000E+00
  0.00000000E+00  0.00000000E+00  0.00000000E+00
  0.00000000E+00  0.00000000E+00  0.00000000E+00
  0.00000000E+00  0.00000000E+00  0.00000000E+00
  0.00000000E+00  0.00000000E+00  0.00000000E+00
  0.00000000E+00  0.00000000E+00  0.00000000E+00
  0.00000000E+00  0.00000000E+00  0.00000000E+00
  0.00000000E+00  0.00000000E+00  0.00000000E+00
  0.00000000E+00  0.00000000E+00  0.00000000E+00
  0.00000000E+00  0.00000000E+00  0.00000000E+00
  0.00000000E+00  0.00000000E+00  0.00000000E+00
  0.00000000E+00  0.00000000E+00  0.00000000E+00
  0.00000000E+00  0.00000000E+00  0.00000000E+00
  0.00000000E+00  0.00000000E+00  0.00000000E+00
  0.00000000E+00  0.00000000E+00  0.00000000E+00
  0.00000000E+00  0.00000000E+00  0.00000000E+00
  0.00000000E+00  0.00000000E+00  0.00000000E+00
  0.00000000E+00  0.00000000E+00  0.00000000E+00
  0.00000000E+00  0.00000000E+00  0.00000000E+00
  0.00000000E+00  0.00000000E+00  0.00000000E+00
  0.00000000E+00  0.00000000E+00  0.00000000E+00
  0.00000000E+00  0.00000000E+00  0.00000000E+00
  0.00000000E+00  0.00000000E+00  0.00000000E+00
  0.00000000E+00  0.00000000E+00  0.00000000E+00
  0.00000000E+00  0.00000000E+00  0.00000000E+00
  0.00000000E+00  0.00000000E+00  0.00000000E+00
  0.00000000E+00  0.00000000E+00  0.00000000E+00
  0.00000000E+00  0.00000000E+00  0.00000000E+00
  0.00000000E+00  0.00000000E+00  0.00000000E+00
  0.00000000E+00  0.00000000E+00  0.00000000E+00
  0.00000000E+00  0.00000000E+00  0.00000000E+00
  0.00000000E+00  0.00000000E+00  0.00000000E+00
  0.00000000E+00  0.00000000E+00  0.00000000E+00
  0.00000000E+00  0.00000000E+00  0.00000000E+00
  0.00000000E+00  0.00000000E+00  0.00000000E+00
  0.00000000E+00  0.00000000E+00  0.00000000E+00
  0.00000000E+00  0.00000000E+00  0.00000000E+00
  0.00000000E+00  0.00000000E+00  0.00000000E+00
  0.00000000E+00  0.00000000E+00  0.00000000E+00
  0.00000000E+00  0.00000000E+00  0.00000000E+00
  0.00000000E+00  0.00000000E+00  0.00000000E+00
  0.00000000E+00  0.00000000E+00  0.00000000E+00
  0.00000000E+00  0.00000000E+00  0.00000000E+00
  0.00000000E+00  0.00000000E+00  0.00000000E+00
  0.00000000E+00  0.00000000E+00  0.00000000E+00
  0.00000000E+00  0.00000000E+00  0.00000000E+00
  0.00000000E+00  0.00000000E+00  0.00000000E+00
  0.00000000E+00  0.00000000E+00  0.00000000E+00
