INCAR created by Atomic Simulation Environment
 LCHARG = .FALSE.
 NSW = 500
 EDIFF = 1e-06
 SIGMA = 0.01
 ENCUT = 400
 IBRION = 1
 LWAVE = .FALSE.
 ISMEAR = 0
 NCORE = 6
 LREAL = A
 EDIFFG = -0.01
