Al  C  H  O Si 
 1.0000000000000000
    13.7295718099999995   -0.0046245600000000   -0.0014114400000000
    -6.8687391399999997   11.8909148200000008    0.0018197300000000
    -0.0015106500000000    0.0013072700000000   14.8903784300000002
   1   1   3  72  35
Cartesian
  3.2004923018662952  7.9074451435098556  8.4455836976724239
  2.4347321382229898  9.4406716966386153  6.2222111020465531
  2.4592164373579428 10.4599439674162689  5.8253693146964416
  3.3239614555280923  8.8917247915303719  5.8986351356307694
  1.5162987158111410  8.9174929226666002  5.9299818882878945
 -2.0287019720785850  3.9634600144087204 12.4421315773274674
 -0.0117451111624204  4.9937152221805494  8.0056996097835942
  6.9074903822681062  1.1175157916695584  3.0427586189420381
  6.8569661484704012  9.0503925309884732 12.8974218991762779
  2.4699610069884823  6.4972297275127096 11.8948556791822924
 -4.3140092572412696 10.4410594900149611  1.9782188344330622
 -2.4644119411923144  6.5105992045805312 11.9455231759649791
  4.3024471205977264  2.5013234441518089  6.8980254536534673
  4.4532607857638515 10.4783321701584935  2.0407900492977302
 -2.3965053116698196  9.3126729009509646  7.9655467856881019
 11.7000812392927287  1.1842908286244047  1.8397383477017355
  2.4902032514102670  1.4417642596598992 12.9058597663071914
  9.0416943315421285  5.2125418607186331  6.7448708508447215
  0.0115308151091437 10.3325593522637664  8.1473101443265783
 11.3465320283434412  3.7489436842991126  2.4791001157540080
  8.8432912496303633  0.1759219521635819  7.6209884761507283
 -4.4290340931649244  7.7656009197894811  7.4474454019318319
  2.4596062563820165  3.7346028473532371  2.4670963288251224
  8.9724868017375172  7.8770507168351163  2.4154974100676339
  2.4236027866485914  4.2313545270760597  7.4446289076996921
  9.3250656175286704  0.1906340742651298  2.5663116888469819
  2.4122094989177776 11.6993763708399037 12.4315747938827084
 11.3342814646034142  4.0956650901345926  7.5106386410357864
  9.2706109593964054  2.6200238740082762  6.8961280786321613
  4.5189859750453278  0.2275234900261712  2.4402247757293942
  9.3638843289376297  5.3599089244521547  3.0572260154813957
  2.0296508203367254  3.9806568775709690 12.4475165036097497
  0.0022527870343157 10.8350481157453462 11.8334566849241209
 -3.5402721500806233  7.9132706784292735  9.9362195555108546
  8.6407057503326072  0.8014954748732425  5.0454236434090109
  8.6273867939284230  8.8318596384321548 14.8810370147179185
  1.9200817116707618 10.8077964800917883  9.9810542126965203
  8.7301044793732121  7.1508030995161729  4.9346902164993143
  1.7828753913405415  3.0552948234778312  0.0145574972830319
  3.2885903104488552  4.0087413770648963  4.9523585591264583
  6.9420068843798886  6.7437566104594815  6.8741235630031463
  3.2692149251605236 11.8468776124089672  0.0547292967188524
  2.4891211497483674  9.5043428072970624  7.7062135147199493
  3.5347365870950327  8.2031807779027908 10.0917643410047670
 -3.2888051227961657 11.8971523164156316 14.8813636583465048
 -1.8288555835902480  4.8365044557858168  9.9703785779186749
  5.0655504441129731  0.8185133550326017  4.9526645134987479
  1.7933322946968164  4.7763401378640600  9.9473163852628641
  5.1844935414206050  8.8389281403187407  0.0727219230117531
  4.4488802015482198  5.3793818501404944  2.9636676132245179
 11.2529423935645134  1.4256784116863805 13.0012817703184069
 -1.8417792071432197 11.0428902770194952  9.9287276778269504
  4.8952352600975395  5.0793149282693548  6.7935419907850036
  5.0934037387381625  7.0162887501751010  4.9714730813104815
 10.5829913245461604  3.9436897348000923  4.9816350650002086
 -2.0449719995912163 11.8716465127812825  7.4332555437227121
 -2.4067797337316761 11.6770678669659755 12.4178531566479347
  6.9347028367602865  9.5419478661037953  1.9473294439306010
 -2.0138691256430366  9.1099316405492097 11.7674457464505053
  0.0354812030732134  2.8229802406939140  2.0197179891358492
  6.8002751225515912  1.6647000886723584  6.7903651523673236
  0.0012799035117150  5.5767693903022728 11.7711331386360492
  2.0767156648626397  1.1544647903277909  1.8724915441508685
 -1.7167401228298178  3.1232897975407869  0.0243348412288903
 -4.8364999343654951 10.7390372019548899 13.0337934820619559
  4.8105781368240246 10.7064032529179940 13.0905647148793509
  1.9321819405925234  6.7745447595315955  8.1615879587393252
  1.9877558855690856  9.0936019778085200 12.0432798554903631
  6.9152611279271525  6.3252699861760284  3.1393319000144468
 -2.0523992177582717  6.6968968104803173  8.0730536801972477
  4.8593071406871013  2.7850642023831549  3.1603684275276458
  4.5788938461619573  7.6736733327185869  7.4616500815166180
  8.9702039529100350  2.7548377326329603  3.2312704075570209
  4.4097699718389478  8.1013025456240406 12.5852841316381916
 -4.4408686913516702  8.1760496637240223 12.4078528590178028
  0.0080052775523984  2.3308303879985743 13.0425039209638491
  4.8709804807550485  7.9379402582044385  2.5268479716615087
  1.5817073601840677 10.5936824310220352 11.5815482729279484
  8.4168934569751990  9.1994564943101977 13.3091264307813084
 10.0610200532140279  3.9516485987585099  3.4393302371386771
  3.7550210408827316 11.8765085563517232  1.6107789274304867
 -1.5620205207809956  5.1712315714079935  8.4014542410495299
  1.5720577112005010  5.2145477463428707 11.4966814330633031
 -5.2483524402612556  9.1779187583657880  1.5751525694389881
 -1.5698139868952345 10.6524371353203620 11.4889512796843736
 -3.6929198841348043 11.8805084124105349  1.5650693355645577
  1.5929563898888992  2.6871583701271051  1.5861805509518678
 -1.5676518677393247  5.2224651273852176 11.5279850231831205
  8.3726977795483499  1.3312428920574784  6.5693780880233321
 -1.5216816133833448  2.7160845201864987  1.5844044083509810
 10.0638791620477637  3.9800454149350766  6.5234292151714195
 -1.5838053694890131 10.6434131631694200  8.3771627307096370
  8.5014060021165747  6.7214109204551269  6.4908475622538644
 -3.1143446929265810  7.9291519908694745 11.5091332360594407
  1.5516207238413955  5.2321001800377225  8.3903277480627327
  8.4855152302537693  6.6794921205595328  3.3945759216648774
  5.3688752979439327  9.1994496756619633  1.6399850790928334
  5.3599281380599750  6.6326690391898158  6.5431183557464481
  3.7255698405811017  3.9770060115603330  6.5259547279653516
 -3.1032514216573159  7.9069972295823456  8.3682261694516118
 -3.7353491250277782 11.9062102725689822 13.3168716656080690
  5.3413694101895457  6.6593462356658479  3.4090211331451252
  3.1091688952385916  7.9624181443121849 11.6144571307598738
 12.1828172762905087  2.7066664956471085 13.3486580673422353
  5.3109315922266269  9.1778920622202680 13.3793673415458532
  8.4650453858859027  1.2271947690584619  3.4689276432901250
  1.5705830873758613  2.7076128962349184 13.3289046428183777
  3.7650609539456021  3.9738363923935736  3.3978255926422274
  3.7238251491178707 11.8852134237946405 13.3761362002091477
  1.5529668826333041 10.7318196251862439  8.4215038431207034
  5.3301405177777283  1.2464530583325530  3.4023391800681382
  5.2434808227090475  1.2495046378377848  6.5121567955563933
