Al  C  H  O Si                          
   1.00000000000000     
    13.7295718138195095   -0.0046245600172939   -0.0014114421969975
    -6.8687391429947304   11.8909148165505947    0.0018197327751748
    -0.0015106504129000    0.0013072721429291   14.8903784328561191
   Al   C    H    O    Si
     1     1     3    72    35
Direct
  0.5538730048203886  0.6648165843776954  0.5638567470126690
  0.7779422658708353  0.7683308770343954  0.5034241176964455
  0.8082561779547787  0.7994637460165991  0.4354954764234856
  0.8369899981320007  0.7516828369215178  0.5403557212741451
  0.7621741094281786  0.8288248370491725  0.5390193004554019
  0.0155860065068636  0.3321862486113731  0.8337794759579750
  0.2073034764044323  0.4196881233723850  0.5380795223139284
  0.5475675958642258  0.0950387579276592  0.2034659384540282
  0.8776951379758513  0.7598525528863019  0.8655412342001605
  0.4482394407667375  0.5458063802553821  0.8026953241756110
  0.1215215116208784  0.8779827658752150  0.1316924133543461
  0.0914949933536593  0.5464915177924909  0.8005490238070314
  0.4350913533076984  0.2188251583848055  0.4608493194401589
  0.7612592253282456  0.8804324572929105  0.1364268088255571
  0.2128766358653185  0.7871701742223567  0.5353610118969945
  0.8994613159980402  0.0986584789805633  0.1241354623482580
  0.2372062190455410  0.1187759952284729  0.8664779576126153
  0.8687728463438669  0.4330872993174991  0.4516570268751049
  0.4340327081510119  0.8755203442349109  0.5420043946758949
  0.9822935888552732  0.3155097711648790  0.1649581974507103
  0.6531332458032209  0.0058080388115035  0.5042256949250409
 -0.0002840039762593  0.6491677672874172  0.4991783783922063
  0.3316803275616081  0.3129413564405714  0.1668911722160221
  0.9818360263105816  0.6641783147950924  0.1635518137555913
  0.3379134605790319  0.3350733911789442  0.5014154629403836
  0.6832929997145260  0.0174203424281301  0.1664282445976777
  0.6631052321349773  0.9806013589442067  0.8350252028051631
 -0.0024878740725564  0.3486376747764502  0.5013388832560114
  0.7843530710697744  0.2156396429881452  0.4624327960547923
  0.3349310047953014  0.0184368654756606  0.1646356798726023
  0.9071648326254239  0.4520285554674177  0.2033200902907235
  0.3112284131322526  0.3320248444471339  0.8335803458196305
  0.4499443040573028  0.9042128979468951  0.7988658779784930
  0.0702650622707188  0.6642304844344177  0.6661210386592418
  0.6662784661233601  0.0688782832469038  0.3338938040097790
  0.9961475113929432  0.7397252422425715 -0.0007895622824075
  0.5914882143702787  0.9284688949060185  0.6679328200690987
  0.9290709190010406  0.5985385819382437  0.3312559265729991
  0.2575239509698571  0.2572186426753622 -0.0000504879774151
  0.4092165981835305  0.3404235459191685  0.3334443979199236
  0.7841565402897219  0.5642253192295837  0.4627810741257143
  0.7378431230450433  0.9955582156300433  0.0009056472203646
  0.5693011735489782  0.7911859812152934  0.5314507539755017
  0.5947333539629738  0.6618750762131728  0.6723946069239407
  0.2594001990844639  0.0006010389027107 -0.0006106721149724
  0.0662305631076484  0.4065306870035509  0.6674811831960196
  0.4007929391577857  0.0681922117061880  0.3330080878872234
  0.3334392265383564  0.4048842146632858  0.6668093931146054
  0.7455277976363888  0.7443081531861910  0.0023768331136814
  0.5465256774016921  0.4514038290664185  0.1976656832199566
  0.8766215010083031  0.1187178889394563  0.8685922633983617
  0.3296456449601359  0.9287173106292881  0.6674908397198672
  0.5590470592318428  0.4406944522107391  0.4645979187817960
  0.6653667543937453  0.5891313718777134  0.3314125268485577
  0.9322968732220446  0.3313473554002940  0.3325451856771576
  0.3461774026120409  0.0038738855314437  0.5014705224989273
  0.3138843067206112  0.9813427567954772  0.8342028399397869
  0.9032145314549650  0.8029662915824392  0.1283124592699118
  0.2312626149581912  0.7654509544231206  0.7897855946466044
  0.1183111161756379  0.2374086213377039  0.1325616785302274
  0.5640685909199500  0.1305289934497292  0.4548001105445847
  0.2305875983888054  0.4664528435777969  0.7878783862416355
  0.1967338724026558  0.0968156811844903  0.1248503605178278
 -0.0009745988920422  0.2593702351387526 -0.0002874066078134
  0.0971503792070540  0.9004687421126535  0.8760874405212329
  0.7997752619391184  0.8999659141718913  0.8745619742184110
  0.4289878894457875  0.5523218320652064  0.5307857324084309
  0.5300434190840779  0.7647590076936419  0.7914478685321121
  0.7657750985277810  0.5291524665229946  0.2084094223862813
  0.1332914141709057  0.5660675143182562  0.5417123999878480
  0.4668505619535566  0.2332791788002122  0.2128485424163330
  0.6690146344021054  0.6622547969274089  0.4967795380046596
  0.7666148091063532  0.2330679065560989  0.2122294320719544
  0.6603433451162030  0.6810477622604132  0.8415923897897948
  0.0154627988446541  0.6844722447154007  0.8324118800101853
  0.0954998364978189  0.1954107256291344  0.8760992675219215
  0.6863118903533765  0.6663855707145347  0.1667848187877399
  0.5586959027289603  0.8930041946077321  0.7724010141199528
 -0.0029336752693407  0.7715387860204407  0.8936501822614416
  0.8962606198109700  0.3321492998320473  0.2285207968827531
  0.7706803670586506 -0.0015388216666050  0.1061192142477881
  0.1024146321263757  0.4365626972445877  0.5627444196519898
  0.3312592034010151  0.4377861538523832  0.7715070315368121
  0.0005345003728201  0.7717204196969271  0.1048083105937812
  0.3313284297046840  0.8944626332281890  0.7719716970360380
  0.2281094822730030 -0.0010365460122358  0.1047261519789072
  0.2261960280202213  0.2256770198116097  0.1052769720175289
  0.1018179170248996  0.4379008587969972  0.7722200359778829
  0.6660065295012787  0.1045275592171977  0.4383270111111638
 -0.0005573255319085  0.2270949355881913  0.1046139217918240
  0.8960930682761975  0.3317541965232621  0.4365021351151844
  0.3312775291660935  0.8985091114567684  0.5620306455461642
  0.8976707161729548  0.5612018499632980  0.4356252586218241
  0.1026529364447136  0.6654327108854562  0.7717832280381514
  0.3286083131219885  0.4311459061574658  0.5601814857350285
  0.8956925230171487  0.5607674435310431  0.2266297761801958
  0.7747423754704978  0.7740437692307836  0.1075811937599665
  0.6674474332706433  0.5573336783533460  0.4354475236547017
  0.4337945231042221  0.3333674436203514  0.4395691750078590
  0.1052963673788320  0.6664526800866745  0.5613075224794414
  0.2263499113455337 -0.0001934397391502  0.8943319169308827
  0.6661664001583772  0.5586545026831390  0.2250662029446163
  0.5591115219958646  0.6638819702911879  0.7745216312489351
  0.9970828355484129  0.2263624117996211  0.8944626024768925
  0.7703201889755357  0.7714791507698853  0.8957779504822995
  0.6663386842780947  0.1039539530944656  0.2294884596759816
  0.2250075465357219  0.2262191551162765  0.8943661216289333
  0.4377319299721674  0.3333322663703915  0.2282161266950465
  0.7690160790371845 -0.0018493914678294  0.8949509261384174
  0.5609073053871041  0.8978996414816474  0.5618098617692306
  0.4376051651233164  0.1039122349959725  0.2288516019123155
  0.4363567901842527  0.1044392878134242  0.4373566973705538
 
  0.00000000E+00  0.00000000E+00  0.00000000E+00
  0.00000000E+00  0.00000000E+00  0.00000000E+00
  0.00000000E+00  0.00000000E+00  0.00000000E+00
  0.00000000E+00  0.00000000E+00  0.00000000E+00
  0.00000000E+00  0.00000000E+00  0.00000000E+00
  0.00000000E+00  0.00000000E+00  0.00000000E+00
  0.00000000E+00  0.00000000E+00  0.00000000E+00
  0.00000000E+00  0.00000000E+00  0.00000000E+00
  0.00000000E+00  0.00000000E+00  0.00000000E+00
  0.00000000E+00  0.00000000E+00  0.00000000E+00
  0.00000000E+00  0.00000000E+00  0.00000000E+00
  0.00000000E+00  0.00000000E+00  0.00000000E+00
  0.00000000E+00  0.00000000E+00  0.00000000E+00
  0.00000000E+00  0.00000000E+00  0.00000000E+00
  0.00000000E+00  0.00000000E+00  0.00000000E+00
  0.00000000E+00  0.00000000E+00  0.00000000E+00
  0.00000000E+00  0.00000000E+00  0.00000000E+00
  0.00000000E+00  0.00000000E+00  0.00000000E+00
  0.00000000E+00  0.00000000E+00  0.00000000E+00
  0.00000000E+00  0.00000000E+00  0.00000000E+00
  0.00000000E+00  0.00000000E+00  0.00000000E+00
  0.00000000E+00  0.00000000E+00  0.00000000E+00
  0.00000000E+00  0.00000000E+00  0.00000000E+00
  0.00000000E+00  0.00000000E+00  0.00000000E+00
  0.00000000E+00  0.00000000E+00  0.00000000E+00
  0.00000000E+00  0.00000000E+00  0.00000000E+00
  0.00000000E+00  0.00000000E+00  0.00000000E+00
  0.00000000E+00  0.00000000E+00  0.00000000E+00
  0.00000000E+00  0.00000000E+00  0.00000000E+00
  0.00000000E+00  0.00000000E+00  0.00000000E+00
  0.00000000E+00  0.00000000E+00  0.00000000E+00
  0.00000000E+00  0.00000000E+00  0.00000000E+00
  0.00000000E+00  0.00000000E+00  0.00000000E+00
  0.00000000E+00  0.00000000E+00  0.00000000E+00
  0.00000000E+00  0.00000000E+00  0.00000000E+00
  0.00000000E+00  0.00000000E+00  0.00000000E+00
  0.00000000E+00  0.00000000E+00  0.00000000E+00
  0.00000000E+00  0.00000000E+00  0.00000000E+00
  0.00000000E+00  0.00000000E+00  0.00000000E+00
  0.00000000E+00  0.00000000E+00  0.00000000E+00
  0.00000000E+00  0.00000000E+00  0.00000000E+00
  0.00000000E+00  0.00000000E+00  0.00000000E+00
  0.00000000E+00  0.00000000E+00  0.00000000E+00
  0.00000000E+00  0.00000000E+00  0.00000000E+00
  0.00000000E+00  0.00000000E+00  0.00000000E+00
  0.00000000E+00  0.00000000E+00  0.00000000E+00
  0.00000000E+00  0.00000000E+00  0.00000000E+00
  0.00000000E+00  0.00000000E+00  0.00000000E+00
  0.00000000E+00  0.00000000E+00  0.00000000E+00
  0.00000000E+00  0.00000000E+00  0.00000000E+00
  0.00000000E+00  0.00000000E+00  0.00000000E+00
  0.00000000E+00  0.00000000E+00  0.00000000E+00
  0.00000000E+00  0.00000000E+00  0.00000000E+00
  0.00000000E+00  0.00000000E+00  0.00000000E+00
  0.00000000E+00  0.00000000E+00  0.00000000E+00
  0.00000000E+00  0.00000000E+00  0.00000000E+00
  0.00000000E+00  0.00000000E+00  0.00000000E+00
  0.00000000E+00  0.00000000E+00  0.00000000E+00
  0.00000000E+00  0.00000000E+00  0.00000000E+00
  0.00000000E+00  0.00000000E+00  0.00000000E+00
  0.00000000E+00  0.00000000E+00  0.00000000E+00
  0.00000000E+00  0.00000000E+00  0.00000000E+00
  0.00000000E+00  0.00000000E+00  0.00000000E+00
  0.00000000E+00  0.00000000E+00  0.00000000E+00
  0.00000000E+00  0.00000000E+00  0.00000000E+00
  0.00000000E+00  0.00000000E+00  0.00000000E+00
  0.00000000E+00  0.00000000E+00  0.00000000E+00
  0.00000000E+00  0.00000000E+00  0.00000000E+00
  0.00000000E+00  0.00000000E+00  0.00000000E+00
  0.00000000E+00  0.00000000E+00  0.00000000E+00
  0.00000000E+00  0.00000000E+00  0.00000000E+00
  0.00000000E+00  0.00000000E+00  0.00000000E+00
  0.00000000E+00  0.00000000E+00  0.00000000E+00
  0.00000000E+00  0.00000000E+00  0.00000000E+00
  0.00000000E+00  0.00000000E+00  0.00000000E+00
  0.00000000E+00  0.00000000E+00  0.00000000E+00
  0.00000000E+00  0.00000000E+00  0.00000000E+00
  0.00000000E+00  0.00000000E+00  0.00000000E+00
  0.00000000E+00  0.00000000E+00  0.00000000E+00
  0.00000000E+00  0.00000000E+00  0.00000000E+00
  0.00000000E+00  0.00000000E+00  0.00000000E+00
  0.00000000E+00  0.00000000E+00  0.00000000E+00
  0.00000000E+00  0.00000000E+00  0.00000000E+00
  0.00000000E+00  0.00000000E+00  0.00000000E+00
  0.00000000E+00  0.00000000E+00  0.00000000E+00
  0.00000000E+00  0.00000000E+00  0.00000000E+00
  0.00000000E+00  0.00000000E+00  0.00000000E+00
  0.00000000E+00  0.00000000E+00  0.00000000E+00
  0.00000000E+00  0.00000000E+00  0.00000000E+00
  0.00000000E+00  0.00000000E+00  0.00000000E+00
  0.00000000E+00  0.00000000E+00  0.00000000E+00
  0.00000000E+00  0.00000000E+00  0.00000000E+00
  0.00000000E+00  0.00000000E+00  0.00000000E+00
  0.00000000E+00  0.00000000E+00  0.00000000E+00
  0.00000000E+00  0.00000000E+00  0.00000000E+00
  0.00000000E+00  0.00000000E+00  0.00000000E+00
  0.00000000E+00  0.00000000E+00  0.00000000E+00
  0.00000000E+00  0.00000000E+00  0.00000000E+00
  0.00000000E+00  0.00000000E+00  0.00000000E+00
  0.00000000E+00  0.00000000E+00  0.00000000E+00
  0.00000000E+00  0.00000000E+00  0.00000000E+00
  0.00000000E+00  0.00000000E+00  0.00000000E+00
  0.00000000E+00  0.00000000E+00  0.00000000E+00
  0.00000000E+00  0.00000000E+00  0.00000000E+00
  0.00000000E+00  0.00000000E+00  0.00000000E+00
  0.00000000E+00  0.00000000E+00  0.00000000E+00
  0.00000000E+00  0.00000000E+00  0.00000000E+00
  0.00000000E+00  0.00000000E+00  0.00000000E+00
  0.00000000E+00  0.00000000E+00  0.00000000E+00
  0.00000000E+00  0.00000000E+00  0.00000000E+00
  0.00000000E+00  0.00000000E+00  0.00000000E+00
  0.00000000E+00  0.00000000E+00  0.00000000E+00
