Al  C  H  O Si                          
   1.00000000000000     
    13.7295718099999995   -0.0046245600000000   -0.0014114400000000
    -6.8687391399999997   11.8909148200000008    0.0018197300000000
    -0.0015106500000000    0.0013072700000000   14.8903784300000002
   Al   C    H    O    Si
     1     1     3    72    35
Direct
  0.5724937199999971  0.6755459199999976  0.5672895399999973
  0.3932131299999995  0.6054504600000001  0.4426221100000021
  0.4347666700000019  0.6972517100000033  0.4406509800000009
  0.4263782700000007  0.5739424599999978  0.3900674300000020
  0.3020935799999975  0.5686792699999970  0.4361829699999973
  0.0152236099999996  0.3345051699999999  0.8392993799999999
  0.2054891800000007  0.4144509200000002  0.5461653099999992
  0.5494027100000025  0.0958978800000025  0.2030367400000017
  0.8773130900000012  0.7616377100000022  0.8682909400000014
  0.4446497300000019  0.5508784700000007  0.8172950399999976
  0.1234130899999997  0.8803101499999997  0.1308538400000003
  0.0905332700000017  0.5473926100000028  0.8021759499999987
  0.4134693100000035  0.2073861399999970  0.4602752199999998
  0.7644937299999981  0.8810131400000003  0.1407008500000018
  0.2203509200000013  0.7818440499999966  0.5371880499999975
  0.9035907700000010  0.0993568199999970  0.1301338800000025
  0.2367438699999980  0.1203411899999978  0.8671064299999998
  0.8783479100000022  0.4402468999999982  0.4553300199999981
  0.4390450799999996  0.8709572400000027  0.5459445999999986
  0.9853031100000038  0.3162479699999992  0.1684963800000006
  0.6532216100000028  0.0156325800000019  0.5102618399999983
  0.0083072500000014  0.6543147300000030  0.4970915299999987
  0.3365354499999995  0.3152916200000035  0.1648846699999993
  0.9872566299999974  0.6656584699999968  0.1639243400000012
  0.3603116000000028  0.3606991500000021  0.5022689400000004
  0.6869415700000019  0.0176904300000018  0.1733159099999995
  0.6612977400000020  0.9830389400000001  0.8441601800000029
  0.9978547799999973  0.3443152299999994  0.5025539299999977
  0.7832861899999983  0.2223451999999995  0.4638423500000002
  0.3370655299999967  0.0201722899999979  0.1637707599999985
  0.9102959800000008  0.4531397200000029  0.2040440000000032
  0.3092873300000036  0.3315830299999973  0.8294438100000008
  0.4488391100000015  0.9050545099999994  0.8046397100000036
  0.0714333999999965  0.6631693900000002  0.6661578200000022
  0.6626768400000032  0.0717562000000029  0.3383230399999988
  0.9984920200000005  0.7403811499999975  0.9993231899999984
  0.5954218700000027  0.9386140499999982  0.6752324899999991
  0.9308388299999990  0.5994437700000006  0.3312154799999973
  0.2599249100000023  0.2622913900000015  0.9986564499999986
  0.4065472099999994  0.3419895199999985  0.3332310199999995
  0.7909934300000003  0.5707419900000019  0.4663736500000013
  0.7420219799999970  0.9993143800000013  0.0072726300000028
  0.5878511599999996  0.8037927700000012  0.5418748600000001
  0.5791139900000033  0.6490396599999997  0.6783484099999981
  0.2614242100000013  0.0011172999999971  0.9980956799999987
  0.0592194700000022  0.4019740099999964  0.6709189400000000
  0.4014709200000013  0.0638457700000004  0.3331911599999984
  0.3539066399999982  0.4283576899999986  0.6693032100000025
  0.7451114300000015  0.7453944000000021  0.0054247200000006
  0.5500814399999996  0.4510859600000003  0.1985141700000028
  0.8762595199999978  0.1203325999999976  0.8718080100000023
  0.3340526499999967  0.9279676499999994  0.6680273699999972
  0.5726012300000036  0.4224584600000014  0.4540556600000016
  0.6702030499999978  0.5857154899999983  0.3326224699999969
  0.9346334999999968  0.3334367499999971  0.3347776299999978
  0.3485095300000012  0.9975516299999967  0.5011394599999974
  0.3121253600000031  0.9833459500000004  0.8315275599999978
  0.9045328099999992  0.8014005599999976  0.1291399400000017
  0.2306896799999976  0.7662210900000019  0.7908143800000005
  0.1228066799999965  0.2402662900000010  0.1341050699999968
  0.5635788800000014  0.1400216400000005  0.4570253199999996
  0.2282262700000004  0.4660569099999989  0.7855568800000015
  0.2002664800000034  0.0996457899999967  0.1219377800000032
  0.9994915899999981  0.2583563900000030  0.0036601199999993
  0.0964865199999991  0.9019659200000021  0.8765175799999980
  0.7991814100000028  0.9019523899999982  0.8786936500000024
  0.4181612200000018  0.5751400999999987  0.5318740800000015
  0.5323397000000014  0.7694577800000033  0.7940623699999989
  0.7702181000000010  0.5311449299999964  0.2047448000000003
  0.1337098500000025  0.5617963600000024  0.5442797800000037
  0.4676415599999970  0.2330699500000009  0.2172764500000000
  0.6448615799999970  0.6370121599999976  0.4971675900000037
  0.7687916599999980  0.2339134899999991  0.2149826099999999
  0.6607187899999971  0.6836819299999988  0.8441014100000004
  0.0144209099999983  0.6862242899999984  0.8314224499999980
  0.0954169700000023  0.1973862700000026  0.8770145900000017
  0.6871123100000034  0.6662432800000033  0.1694820299999975
  0.5598226999999980  0.8978024500000004  0.7784832500000007
  0.9969284800000011  0.7728020200000003  0.8943154700000022
  0.8984752400000033  0.3334801499999998  0.2306471699999975
  0.7744624700000031  0.9995766300000000  0.1122887900000009
  0.0982320900000033  0.4316909799999991  0.5670033999999973
  0.3339053899999982  0.4444409600000014  0.7760774400000017
  0.0029708300000024  0.7720842199999964  0.1051643300000009
  0.3314785299999983  0.8950017100000025  0.7732739300000020
  0.2304685100000015  0.0006228299999975  0.1034939999999978
  0.2301082800000032  0.2288429099999973  0.1041661699999992
  0.0986735600000017  0.4375624299999998  0.7748415699999995
  0.6644311800000011  0.1114386699999983  0.4418727700000034
  0.0022980800000028  0.2275903800000023  0.1086077000000003
  0.8981008200000034  0.3351041000000023  0.4383063000000007
  0.3363479599999977  0.8950780199999997  0.5635579599999971
  0.9017266500000005  0.5665612299999978  0.4367322800000011
  0.1021058099999976  0.6664233199999998  0.7723179799999969
  0.3314115700000002  0.4386434199999982  0.5647127100000020
  0.8989916000000022  0.5623952299999999  0.2266354599999971
  0.7759640900000022  0.7736394300000029  0.1108170099999981
  0.6695423299999987  0.5553445099999976  0.4387309900000034
  0.4400780699999984  0.3336704199999971  0.4372188800000032
  0.1079778300000029  0.6649936800000020  0.5619401499999981
  0.2258660299999988  0.0009851599999990  0.8938336499999977
  0.6699962699999986  0.5584825600000016  0.2269686500000034
  0.5559996100000006  0.6647923900000023  0.7809962999999982
  0.9967613700000015  0.2272207800000032  0.8981660800000029
  0.7703434100000024  0.7734756099999984  0.8991579200000004
  0.6675058000000007  0.1053245000000018  0.2328515800000019
  0.2250383299999967  0.2281383099999985  0.8938692300000000
  0.4401539600000035  0.3346977899999999  0.2289530400000004
  0.7694078000000033  0.0003734399999971  0.9008003300000027
  0.5695151400000000  0.9055998600000024  0.5691165799999993
  0.4388818899999976  0.1034914000000029  0.2296527299999980
  0.4324949200000034  0.1022413399999991  0.4377825899999976
 
  0.00000000E+00  0.00000000E+00  0.00000000E+00
  0.00000000E+00  0.00000000E+00  0.00000000E+00
  0.00000000E+00  0.00000000E+00  0.00000000E+00
  0.00000000E+00  0.00000000E+00  0.00000000E+00
  0.00000000E+00  0.00000000E+00  0.00000000E+00
  0.00000000E+00  0.00000000E+00  0.00000000E+00
  0.00000000E+00  0.00000000E+00  0.00000000E+00
  0.00000000E+00  0.00000000E+00  0.00000000E+00
  0.00000000E+00  0.00000000E+00  0.00000000E+00
  0.00000000E+00  0.00000000E+00  0.00000000E+00
  0.00000000E+00  0.00000000E+00  0.00000000E+00
  0.00000000E+00  0.00000000E+00  0.00000000E+00
  0.00000000E+00  0.00000000E+00  0.00000000E+00
  0.00000000E+00  0.00000000E+00  0.00000000E+00
  0.00000000E+00  0.00000000E+00  0.00000000E+00
  0.00000000E+00  0.00000000E+00  0.00000000E+00
  0.00000000E+00  0.00000000E+00  0.00000000E+00
  0.00000000E+00  0.00000000E+00  0.00000000E+00
  0.00000000E+00  0.00000000E+00  0.00000000E+00
  0.00000000E+00  0.00000000E+00  0.00000000E+00
  0.00000000E+00  0.00000000E+00  0.00000000E+00
  0.00000000E+00  0.00000000E+00  0.00000000E+00
  0.00000000E+00  0.00000000E+00  0.00000000E+00
  0.00000000E+00  0.00000000E+00  0.00000000E+00
  0.00000000E+00  0.00000000E+00  0.00000000E+00
  0.00000000E+00  0.00000000E+00  0.00000000E+00
  0.00000000E+00  0.00000000E+00  0.00000000E+00
  0.00000000E+00  0.00000000E+00  0.00000000E+00
  0.00000000E+00  0.00000000E+00  0.00000000E+00
  0.00000000E+00  0.00000000E+00  0.00000000E+00
  0.00000000E+00  0.00000000E+00  0.00000000E+00
  0.00000000E+00  0.00000000E+00  0.00000000E+00
  0.00000000E+00  0.00000000E+00  0.00000000E+00
  0.00000000E+00  0.00000000E+00  0.00000000E+00
  0.00000000E+00  0.00000000E+00  0.00000000E+00
  0.00000000E+00  0.00000000E+00  0.00000000E+00
  0.00000000E+00  0.00000000E+00  0.00000000E+00
  0.00000000E+00  0.00000000E+00  0.00000000E+00
  0.00000000E+00  0.00000000E+00  0.00000000E+00
  0.00000000E+00  0.00000000E+00  0.00000000E+00
  0.00000000E+00  0.00000000E+00  0.00000000E+00
  0.00000000E+00  0.00000000E+00  0.00000000E+00
  0.00000000E+00  0.00000000E+00  0.00000000E+00
  0.00000000E+00  0.00000000E+00  0.00000000E+00
  0.00000000E+00  0.00000000E+00  0.00000000E+00
  0.00000000E+00  0.00000000E+00  0.00000000E+00
  0.00000000E+00  0.00000000E+00  0.00000000E+00
  0.00000000E+00  0.00000000E+00  0.00000000E+00
  0.00000000E+00  0.00000000E+00  0.00000000E+00
  0.00000000E+00  0.00000000E+00  0.00000000E+00
  0.00000000E+00  0.00000000E+00  0.00000000E+00
  0.00000000E+00  0.00000000E+00  0.00000000E+00
  0.00000000E+00  0.00000000E+00  0.00000000E+00
  0.00000000E+00  0.00000000E+00  0.00000000E+00
  0.00000000E+00  0.00000000E+00  0.00000000E+00
  0.00000000E+00  0.00000000E+00  0.00000000E+00
  0.00000000E+00  0.00000000E+00  0.00000000E+00
  0.00000000E+00  0.00000000E+00  0.00000000E+00
  0.00000000E+00  0.00000000E+00  0.00000000E+00
  0.00000000E+00  0.00000000E+00  0.00000000E+00
  0.00000000E+00  0.00000000E+00  0.00000000E+00
  0.00000000E+00  0.00000000E+00  0.00000000E+00
  0.00000000E+00  0.00000000E+00  0.00000000E+00
  0.00000000E+00  0.00000000E+00  0.00000000E+00
  0.00000000E+00  0.00000000E+00  0.00000000E+00
  0.00000000E+00  0.00000000E+00  0.00000000E+00
  0.00000000E+00  0.00000000E+00  0.00000000E+00
  0.00000000E+00  0.00000000E+00  0.00000000E+00
  0.00000000E+00  0.00000000E+00  0.00000000E+00
  0.00000000E+00  0.00000000E+00  0.00000000E+00
  0.00000000E+00  0.00000000E+00  0.00000000E+00
  0.00000000E+00  0.00000000E+00  0.00000000E+00
  0.00000000E+00  0.00000000E+00  0.00000000E+00
  0.00000000E+00  0.00000000E+00  0.00000000E+00
  0.00000000E+00  0.00000000E+00  0.00000000E+00
  0.00000000E+00  0.00000000E+00  0.00000000E+00
  0.00000000E+00  0.00000000E+00  0.00000000E+00
  0.00000000E+00  0.00000000E+00  0.00000000E+00
  0.00000000E+00  0.00000000E+00  0.00000000E+00
  0.00000000E+00  0.00000000E+00  0.00000000E+00
  0.00000000E+00  0.00000000E+00  0.00000000E+00
  0.00000000E+00  0.00000000E+00  0.00000000E+00
  0.00000000E+00  0.00000000E+00  0.00000000E+00
  0.00000000E+00  0.00000000E+00  0.00000000E+00
  0.00000000E+00  0.00000000E+00  0.00000000E+00
  0.00000000E+00  0.00000000E+00  0.00000000E+00
  0.00000000E+00  0.00000000E+00  0.00000000E+00
  0.00000000E+00  0.00000000E+00  0.00000000E+00
  0.00000000E+00  0.00000000E+00  0.00000000E+00
  0.00000000E+00  0.00000000E+00  0.00000000E+00
  0.00000000E+00  0.00000000E+00  0.00000000E+00
  0.00000000E+00  0.00000000E+00  0.00000000E+00
  0.00000000E+00  0.00000000E+00  0.00000000E+00
  0.00000000E+00  0.00000000E+00  0.00000000E+00
  0.00000000E+00  0.00000000E+00  0.00000000E+00
  0.00000000E+00  0.00000000E+00  0.00000000E+00
  0.00000000E+00  0.00000000E+00  0.00000000E+00
  0.00000000E+00  0.00000000E+00  0.00000000E+00
  0.00000000E+00  0.00000000E+00  0.00000000E+00
  0.00000000E+00  0.00000000E+00  0.00000000E+00
  0.00000000E+00  0.00000000E+00  0.00000000E+00
  0.00000000E+00  0.00000000E+00  0.00000000E+00
  0.00000000E+00  0.00000000E+00  0.00000000E+00
  0.00000000E+00  0.00000000E+00  0.00000000E+00
  0.00000000E+00  0.00000000E+00  0.00000000E+00
  0.00000000E+00  0.00000000E+00  0.00000000E+00
  0.00000000E+00  0.00000000E+00  0.00000000E+00
  0.00000000E+00  0.00000000E+00  0.00000000E+00
  0.00000000E+00  0.00000000E+00  0.00000000E+00
  0.00000000E+00  0.00000000E+00  0.00000000E+00
  0.00000000E+00  0.00000000E+00  0.00000000E+00
  0.00000000E+00  0.00000000E+00  0.00000000E+00
