Al  C  H  O Si 
 1.0000000000000000
    13.7295718099999995   -0.0046245600000000   -0.0014114400000000
    -6.8687391399999997   11.8909148200000008    0.0018197300000000
    -0.0015106500000000    0.0013072700000000   14.8903784300000002
   1   1   3  72  35
Cartesian
  3.2190879619991235  8.0309530607577280  8.4475772006214669
  1.2392979859463895  7.1981200364830853  6.5913574790104565
  1.1792544360477069  8.2895261369645521  6.5621150105358952
  1.9111407817155550  6.8232390149981628  5.8086942588848620
  0.2408470201907213  6.7612899184946480  6.4955379437867791
 -2.0898829946173167  3.9785992717222505 12.4980726061452803
 -0.0263018674505445  4.9279642752731778  8.1330723043626953
  6.8840597203033003  1.1380382005411238  3.0226929530816879
  6.8123306361225113  9.0536470369835058 12.9293283841426927
  2.3197752433076193  6.5494610788734979 12.1702072882252885
 -4.3524095755486742 10.4672933388913503  1.9498909332361811
 -2.5181258206935038  6.5096288826225255 11.9455717874203451
  4.2515799712035385  2.4647005159431905  6.8534660074091400
  4.4445095770183993 10.4727006899169073  2.0956130709336462
 -2.3457705511992843  9.2965242248453510  8.0000450855443432
 11.7232616984624372  1.1774348937920689  1.9366481581938584
  2.4224898275066482  1.4310055456187349 12.9114277204921102
  9.0347117469200384  5.2314716543336344  6.7795977034567150
  0.0446981388228310 10.3551616593843736  8.1302869170456074
 11.3553104548203372  3.7561413501802163  2.5081596519819533
  8.8603060611850371  0.1835318646636708  7.5970983599536961
 -4.3810131417307039  7.7810121353696617  7.4030599470063807
  2.4545826535509221  3.7477650172817074  2.4552938796297830
  8.9821287774178611  7.9109368318326450  2.4407133216777521
  2.4686168642320538  4.2880331868007016  7.4791224070944899
  9.3096408459652711  0.2074051644418791  2.5798021028364442
  2.3258215352226808 11.6872776344851061 12.5707200191050585
 11.3343481780682946  4.0902654055333842  7.4824363477865354
  9.2262521121091492  2.6408718470419221  6.9060871701312934
  4.4889598006456843  0.2385222949483462  2.4381695525183251
  9.3851672560430828  5.3843028343012618  3.0378321401555843
  1.9675722715457973  3.9424795546821789 12.3508990683991460
 -0.0554300737669440 10.7609022838259882 11.9824032270755190
 -3.5753938819212530  7.8862312278104065  9.9204479991797907
  8.6048835544258360  0.8506245527601946  5.0369533454988042
  8.6218732792017700  8.8004979879542251 14.8802384551881737
  1.7267722188595491 11.1591088644192968 10.0553349262322040
  8.6620953241283623  7.1240630764905477  4.9317008417274630
  1.7655379601085899  3.1189880517850024 14.8704828931565292
  3.2321789169159740  4.0651237726027238  4.9619845040100454
  6.9390187255143463  6.7835960669920867  6.9444022948349931
  3.3236032775390405 11.8793401531043035  0.1090633757346371
  2.5490832718065226  9.5558211847895951  8.0693546962793512
  3.4918782488007616  7.7158839489941080 10.1012282245792431
  3.5800602485874058  0.0133815277233820 14.8616554331455504
 -1.9490101735313217  4.7804419209743383  9.9908848118909450
  5.0729805512184729  0.7577635571372494  4.9608919918783956
  1.9156983137986445  5.0928031017982240  9.9664580586650224
  5.1101329997667051  8.8599825967640005  0.0810808701515424
  4.4536909574408217  5.3615403538527779  2.9559955627236700
 11.2028177678278595  1.4279520704005537 12.9805333723105125
 -1.7885770272595150 11.0337127274824702  9.9483974961970478
  4.9591268273704232  5.0213631074468168  6.7610211737367587
  5.1779715150544368  6.9620284335040115  4.9529943452770482
 10.5413219670154810  3.9609833681612456  4.9842531863483588
 -2.0677923528726976 11.8608448822319748  7.4634795799424847
 -2.4702554181918948 11.6925265186205003 12.3831089212820071
  6.9140416908558056  9.5253715501778498  1.9231242158791968
 -2.0968969071336887  9.1110366841255566 11.7765940969479903
  0.0355540758381048  2.8565933731822160  1.9971391271971226
  6.7752341791447241  1.6629765453414886  6.8047393106964176
 -0.0689610777917806  5.5418145069457330 11.6977651915444039
  2.0649478750793513  1.1841128623105195  1.8155983534269908
 -1.7815684288263047  3.0721009626303220  0.0549714283629967
 -4.8719741238953338 10.7258995626988103 13.0531836162576127
  4.7758154756401350 10.7224918686518293 13.0845942857512938
  1.7898837067147415  6.8377034300432813  7.9202627185299113
  2.0223918180811067  9.1481331365976963 11.8245380261825108
  6.9261594458760820  6.3125048566230220  3.0486069773030691
 -2.0238758756118593  6.6803658343501402  8.1053654902566450
  4.8192934627683881  2.7695363250837373  3.2350926408036407
  4.4774519678522839  7.5723250650711869  7.4032625649405253
  8.9481647952823096  2.7781711019963269  3.2005129748636696
  4.3740780998245539  8.1276515283659734 12.5693009797861084
 -4.5167587084552556  8.1608547830676397 12.3814233043757849
 -0.0470855190303755  2.3478085565678080 13.0593036481202649
  4.8572504795533806  7.9192860585464349  2.5238941288697010
  1.5181791164935818 10.6741212122700251 11.5927537958169466
  8.3778746756843319  9.1858817487569357 13.3166949703893565
 10.0447437412215521  3.9615305232808549  3.4337623450491570
  3.7670373450440597 11.8824458069988985  1.6727484288190528
 -1.6173447406957842  5.1334876180829108  8.4435421094225891
  1.5304566309951457  5.2842799751236376 11.5564242477100994
 -5.2626157439651831  9.1809114332782347  1.5673374627067673
 -1.5976431409980445 10.6418670328241163 11.5155022471586843
  3.1597995579790368  0.0064754976261150  1.5407406661431016
  1.5872685428823787  2.7202235737326257  1.5511653391816043
 -1.6519269757838873  5.2035741889027927 11.5383411742665523
  8.3562449291744922  1.3226126777823466  6.5789177467586111
 -1.5318713648303532  2.7063891744105657  1.6176206628520733
 10.0281349257533154  3.9811139724814244  6.5258888588156214
 -1.5309952981929695 10.6424777541667304  8.3927453569994750
  8.4880997488394119  6.7333321642555806  6.5028671772009119
 -3.1767855934360156  7.9249203658626248 11.5011755847768082
  1.5363586382670209  5.2150771428677274  8.4091164011751616
  8.4794812334788432  6.6835326082484068  3.3744422998251120
  5.3395598568318547  9.1958369387839660  1.6504198035058586
  5.3773501585785510  6.6010314653483109  6.5329360283074731
  3.7495279056558952  3.9661829378594833  6.5103406262230239
 -3.0860276416832599  7.9076184622647245  8.3685591932318957
  3.0929268014700790  0.0118384045520099 13.3092042983439942
  5.3623480123266276  6.6380668207722335  3.3797197181797993
  3.0661712505992544  7.9034394019508998 11.6297554419961244
 12.1230297272528968  2.6984275031241141 13.3730394357915703
  5.2623246568010478  9.1949455367114687 13.3891219204008411
  8.4407705419012391  1.2496221372216287  3.4664976619894525
  1.5213070489547245  2.7129010365576720 13.3101486236590691
  3.7438277231214911  3.9781266963755910  3.4091852170030217
 10.5597137853111604  0.0020599599422119 13.4121725101836216
  1.5980100719901069 10.7665210283596249  8.4752053577714062
  5.3144580701335498  1.2288780044936767  3.4191849281331144
  5.2350396315465737  1.2143152663618528  6.5183240461692877
