Al  C  H  O Si                          
   1.00000000000000     
    13.7295718099999995   -0.0046245600000000   -0.0014114400000000
    -6.8687391399999997   11.8909148200000008    0.0018197300000000
    -0.0015106500000000    0.0013072700000000   14.8903784300000002
   Al   C    H    O    Si
     1     1     3    72    35
Direct
  0.5623502420100829  0.6702828787580579  0.5576358968662232
  0.7333355802929519  0.6713278412949151  0.6746436685433631
  0.7539508678960415  0.6633097600388226  0.6052379460996711
  0.7263690464293040  0.6019375908662461  0.7156972452613425
  0.7967165131396318  0.7523661304733708  0.7025187839623425
  0.0159748409777313  0.3321747444234943  0.8327247135098439
  0.2084759982776832  0.4222557534277371  0.5334106945074562
  0.5467284867144848  0.0953998896975807  0.2005087671936855
  0.8738910227668095  0.7581154045226404  0.8661671560335439
  0.4508751319660931  0.5448892178556235  0.7864686071530294
  0.1213639413133863  0.8782162030993654  0.1310323007911293
  0.0878046233959107  0.5451556771875828  0.7986228011337602
  0.4116068863165696  0.2082993432368110  0.4571963635536373
  0.7635907826700010  0.8821550813259248  0.1395395420109155
  0.2144375630569940  0.7860349557787182  0.5387086822366095
  0.9006369480924866  0.1004284372909459  0.1248575364020270
  0.2371395302470032  0.1196602561763262  0.8623381804452559
  0.8747215148485749  0.4404837861804318  0.4471188528590868
  0.4342760160902616  0.8693957850623956  0.5436109547575966
  0.9825063040078683  0.3173188851236488  0.1641316966215597
  0.6484257280568293  0.0121381046117835  0.5033351793296015
  0.0037764324035486  0.6544735073692755  0.4945318990579555
  0.3329065626253424  0.3137649130693859  0.1635087196744811
  0.9855290063498381  0.6637933332316573  0.1607727636706440
  0.3574622358175145  0.3613682048823516  0.4985447573990501
  0.6845498806967998  0.0183002472962159  0.1700805551955991
  0.6581413756305057  0.9737541358459787  0.8403084538821574
  0.9960359932694499  0.3487143793722459  0.5010278028313659
  0.7810987269568598  0.2228694187040984  0.4652258555011617
  0.3349729225335386  0.0190881744658059  0.1615222151942988
  0.9102492155540587  0.4541765302511890  0.2067439477206324
  0.3126258421026442  0.3367393426097200  0.8380379228187588
  0.4445708800540235  0.8951076448638555  0.8031246101946665
  0.0638661913699953  0.6611752743257377  0.6641692568240654
  0.6650218869862592  0.0773927801656520  0.3348147257835875
  0.9964143330135147  0.7422883343456533  0.9978744158993311
  0.5930758117359978  0.9477523111125380  0.6706678402527789
  0.9229528178413353  0.6034765525453488  0.3283601486660823
  0.2534514147152405  0.2524680831488644  0.9992952979714300
  0.4078213244793495  0.3440166607957191  0.3302584220520241
  0.7870456823924109  0.5709881818461916  0.4672684344969230
  0.7377471521794743  0.9955481453741155  0.0041054907188945
  0.5867160156047901  0.8040073815567269  0.5478886803116099
  0.6229196322669016  0.6661399798642813  0.6731559530461388
  0.2546619260778448  0.0018102766207873  0.9976146888218270
  0.0700207901247556  0.4061061186863977  0.6664129811838861
  0.3991073376762159  0.0631490020042716  0.3313950088423159
  0.3158386518298378  0.3875082673422083  0.6675819943594683
  0.7450608554570276  0.7459383992055455  0.0055969796531937
  0.5474475445115438  0.4493845526680888  0.1921928374125834
  0.8739287054931789  0.1193184764216026  0.8697433149433201
  0.3354710552570330  0.9302855038608933  0.6680768302114923
  0.5701179510016713  0.4226019036317337  0.4538636091311253
  0.6700532478066462  0.5798212474633625  0.3277422466048975
  0.9285634925395164  0.3255861216978929  0.3325408856315724
  0.3476894122832556  0.9998512049813481  0.5008241972130066
  0.3119850795966077  0.9790962708508315  0.8342293876639080
  0.9028293985495123  0.8008558158903750  0.1297012952066914
  0.2264916696301338  0.7639532355945600  0.7867867217478777
  0.1190949689277696  0.2396156709703507  0.1331855829605698
  0.5619631200227684  0.1409367401157653  0.4541643390111797
  0.2323208240849457  0.4706631921628105  0.7897432386952753
  0.1946525529418088  0.0964111458131420  0.1266690574438285
  0.0004403271849146  0.2595750548274147  0.9992545389390767
  0.0945941239975661  0.9007147907520636  0.8723212596074525
  0.8008047389095749  0.9016071308079548  0.8767368533132168
  0.4233227557638846  0.5685133410222820  0.5658576591671227
  0.5336311931697547  0.7659710681780396  0.7720142574831161
  0.7679881960596534  0.5297266952881660  0.1965402916060768
  0.1315334019452803  0.5656189500047893  0.5414832078425664
  0.4647679856013254  0.2320040511071149  0.2145258581160257
  0.6423702798198555  0.6405140004239607  0.4877921332938794
  0.7662935639118539  0.2353903192741200  0.2084871257545300
  0.6556320823137355  0.6836279456701658  0.8476333468476268
  0.0113056831604865  0.6834234151362328  0.8306888266513381
  0.0941797699889707  0.1945570454836969  0.8734874645296483
  0.6843393181772292  0.6660791929055784  0.1680976363547567
  0.5580036532752418  0.8963062971585890  0.7708604319610628
  0.9955306747334476  0.7718937650385086  0.8924178828940119
  0.8960149429658694  0.3324782255913153  0.2285762794178905
  0.7717676025208168  0.9996306562920683  0.1095400543943872
  0.1025994029600425  0.4367077169616266  0.5608367901330773
  0.3268673762381806  0.4345650892774932  0.7691743956831161
  0.0009377283659586  0.7714099042959139  0.1044164868132426
  0.3295527122426085  0.8920644657926364  0.7721604869260794
  0.2266363801313926  0.9996077450146040  0.1039536095577092
  0.2251429574704251  0.2251728328290880  0.1054126331656749
  0.1020987605160464  0.4384951725773026  0.7713295930834755
  0.6630354776557110  0.1128128753986471  0.4389940834157628
  0.0002518727547864  0.2287832767575933  0.1048463712517852
  0.8955443909600146  0.3348291946077489  0.4360253643910241
  0.3337977887811731  0.8964006389188816  0.5627930494916872
  0.8973657982697110  0.5672922706569000  0.4336995287510396
  0.0979682597488261  0.6636951491187985  0.7693580143665872
  0.3291277456646156  0.4378404108776097  0.5650544928832864
  0.8958361708327117  0.5623250193324865  0.2241723795976988
  0.7747571191042383  0.7742125598937131  0.1114991567155367
  0.6658695096939373  0.5539416228930634  0.4344564735105839
  0.4370243756198479  0.3347930782160204  0.4353015211808041
  0.1037924718741868  0.6661962804496367  0.5599178884404925
  0.2241029202446814 -0.0000662632392468  0.8919929226242482
  0.6673420544126524  0.5555726659992460  0.2216806124529793
  0.5619945170908476  0.6653618302464276  0.7736686872113117
  0.9964832312449180  0.2263262932620368  0.8939632819601381
  0.7701308860044885  0.7736678250760138  0.9002183208269715
  0.6660031735846393  0.1071360866539856  0.2291243351682960
  0.2236598300162748  0.2256654363767550  0.8934340385370793
  0.4380360926679679  0.3342197976875932  0.2261879267417128
  0.7680106815714824  0.9985456644786497  0.8982812354004484
  0.5651932420584502  0.9057410042893448  0.5655623670613515
  0.4362543666982501  0.1027262930316587  0.2278332365988966
  0.4306145330633457  0.1032750778486844  0.4358335427107978
 
  0.00000000E+00  0.00000000E+00  0.00000000E+00
  0.00000000E+00  0.00000000E+00  0.00000000E+00
  0.00000000E+00  0.00000000E+00  0.00000000E+00
  0.00000000E+00  0.00000000E+00  0.00000000E+00
  0.00000000E+00  0.00000000E+00  0.00000000E+00
  0.00000000E+00  0.00000000E+00  0.00000000E+00
  0.00000000E+00  0.00000000E+00  0.00000000E+00
  0.00000000E+00  0.00000000E+00  0.00000000E+00
  0.00000000E+00  0.00000000E+00  0.00000000E+00
  0.00000000E+00  0.00000000E+00  0.00000000E+00
  0.00000000E+00  0.00000000E+00  0.00000000E+00
  0.00000000E+00  0.00000000E+00  0.00000000E+00
  0.00000000E+00  0.00000000E+00  0.00000000E+00
  0.00000000E+00  0.00000000E+00  0.00000000E+00
  0.00000000E+00  0.00000000E+00  0.00000000E+00
  0.00000000E+00  0.00000000E+00  0.00000000E+00
  0.00000000E+00  0.00000000E+00  0.00000000E+00
  0.00000000E+00  0.00000000E+00  0.00000000E+00
  0.00000000E+00  0.00000000E+00  0.00000000E+00
  0.00000000E+00  0.00000000E+00  0.00000000E+00
  0.00000000E+00  0.00000000E+00  0.00000000E+00
  0.00000000E+00  0.00000000E+00  0.00000000E+00
  0.00000000E+00  0.00000000E+00  0.00000000E+00
  0.00000000E+00  0.00000000E+00  0.00000000E+00
  0.00000000E+00  0.00000000E+00  0.00000000E+00
  0.00000000E+00  0.00000000E+00  0.00000000E+00
  0.00000000E+00  0.00000000E+00  0.00000000E+00
  0.00000000E+00  0.00000000E+00  0.00000000E+00
  0.00000000E+00  0.00000000E+00  0.00000000E+00
  0.00000000E+00  0.00000000E+00  0.00000000E+00
  0.00000000E+00  0.00000000E+00  0.00000000E+00
  0.00000000E+00  0.00000000E+00  0.00000000E+00
  0.00000000E+00  0.00000000E+00  0.00000000E+00
  0.00000000E+00  0.00000000E+00  0.00000000E+00
  0.00000000E+00  0.00000000E+00  0.00000000E+00
  0.00000000E+00  0.00000000E+00  0.00000000E+00
  0.00000000E+00  0.00000000E+00  0.00000000E+00
  0.00000000E+00  0.00000000E+00  0.00000000E+00
  0.00000000E+00  0.00000000E+00  0.00000000E+00
  0.00000000E+00  0.00000000E+00  0.00000000E+00
  0.00000000E+00  0.00000000E+00  0.00000000E+00
  0.00000000E+00  0.00000000E+00  0.00000000E+00
  0.00000000E+00  0.00000000E+00  0.00000000E+00
  0.00000000E+00  0.00000000E+00  0.00000000E+00
  0.00000000E+00  0.00000000E+00  0.00000000E+00
  0.00000000E+00  0.00000000E+00  0.00000000E+00
  0.00000000E+00  0.00000000E+00  0.00000000E+00
  0.00000000E+00  0.00000000E+00  0.00000000E+00
  0.00000000E+00  0.00000000E+00  0.00000000E+00
  0.00000000E+00  0.00000000E+00  0.00000000E+00
  0.00000000E+00  0.00000000E+00  0.00000000E+00
  0.00000000E+00  0.00000000E+00  0.00000000E+00
  0.00000000E+00  0.00000000E+00  0.00000000E+00
  0.00000000E+00  0.00000000E+00  0.00000000E+00
  0.00000000E+00  0.00000000E+00  0.00000000E+00
  0.00000000E+00  0.00000000E+00  0.00000000E+00
  0.00000000E+00  0.00000000E+00  0.00000000E+00
  0.00000000E+00  0.00000000E+00  0.00000000E+00
  0.00000000E+00  0.00000000E+00  0.00000000E+00
  0.00000000E+00  0.00000000E+00  0.00000000E+00
  0.00000000E+00  0.00000000E+00  0.00000000E+00
  0.00000000E+00  0.00000000E+00  0.00000000E+00
  0.00000000E+00  0.00000000E+00  0.00000000E+00
  0.00000000E+00  0.00000000E+00  0.00000000E+00
  0.00000000E+00  0.00000000E+00  0.00000000E+00
  0.00000000E+00  0.00000000E+00  0.00000000E+00
  0.00000000E+00  0.00000000E+00  0.00000000E+00
  0.00000000E+00  0.00000000E+00  0.00000000E+00
  0.00000000E+00  0.00000000E+00  0.00000000E+00
  0.00000000E+00  0.00000000E+00  0.00000000E+00
  0.00000000E+00  0.00000000E+00  0.00000000E+00
  0.00000000E+00  0.00000000E+00  0.00000000E+00
  0.00000000E+00  0.00000000E+00  0.00000000E+00
  0.00000000E+00  0.00000000E+00  0.00000000E+00
  0.00000000E+00  0.00000000E+00  0.00000000E+00
  0.00000000E+00  0.00000000E+00  0.00000000E+00
  0.00000000E+00  0.00000000E+00  0.00000000E+00
  0.00000000E+00  0.00000000E+00  0.00000000E+00
  0.00000000E+00  0.00000000E+00  0.00000000E+00
  0.00000000E+00  0.00000000E+00  0.00000000E+00
  0.00000000E+00  0.00000000E+00  0.00000000E+00
  0.00000000E+00  0.00000000E+00  0.00000000E+00
  0.00000000E+00  0.00000000E+00  0.00000000E+00
  0.00000000E+00  0.00000000E+00  0.00000000E+00
  0.00000000E+00  0.00000000E+00  0.00000000E+00
  0.00000000E+00  0.00000000E+00  0.00000000E+00
  0.00000000E+00  0.00000000E+00  0.00000000E+00
  0.00000000E+00  0.00000000E+00  0.00000000E+00
  0.00000000E+00  0.00000000E+00  0.00000000E+00
  0.00000000E+00  0.00000000E+00  0.00000000E+00
  0.00000000E+00  0.00000000E+00  0.00000000E+00
  0.00000000E+00  0.00000000E+00  0.00000000E+00
  0.00000000E+00  0.00000000E+00  0.00000000E+00
  0.00000000E+00  0.00000000E+00  0.00000000E+00
  0.00000000E+00  0.00000000E+00  0.00000000E+00
  0.00000000E+00  0.00000000E+00  0.00000000E+00
  0.00000000E+00  0.00000000E+00  0.00000000E+00
  0.00000000E+00  0.00000000E+00  0.00000000E+00
  0.00000000E+00  0.00000000E+00  0.00000000E+00
  0.00000000E+00  0.00000000E+00  0.00000000E+00
  0.00000000E+00  0.00000000E+00  0.00000000E+00
  0.00000000E+00  0.00000000E+00  0.00000000E+00
  0.00000000E+00  0.00000000E+00  0.00000000E+00
  0.00000000E+00  0.00000000E+00  0.00000000E+00
  0.00000000E+00  0.00000000E+00  0.00000000E+00
  0.00000000E+00  0.00000000E+00  0.00000000E+00
  0.00000000E+00  0.00000000E+00  0.00000000E+00
  0.00000000E+00  0.00000000E+00  0.00000000E+00
  0.00000000E+00  0.00000000E+00  0.00000000E+00
  0.00000000E+00  0.00000000E+00  0.00000000E+00
  0.00000000E+00  0.00000000E+00  0.00000000E+00
  0.00000000E+00  0.00000000E+00  0.00000000E+00
