Al  C  H  O Si 
 1.0000000000000000
    13.7295718099999995   -0.0046245600000000   -0.0014114400000000
    -6.8687391399999997   11.8909148200000008    0.0018197300000000
    -0.0015106500000000    0.0013072700000000   14.8903784300000002
   1   1   3  72  35
Cartesian
  3.1143409608519486  7.9701861944629213  8.3022028956717389
  5.4569455689176314  7.9443677338552368 10.0417535925572476
  5.7901607675495006  7.9005572051665087  9.0031902867323570
  5.8188561767234290  7.0755118364990297 10.6022327345000349
  5.7959285395669120  8.8731061925482813 10.5108816976500616
 -2.0624766461990403  3.9522808403223375 12.4009470663720940
 -0.0398441188171119  5.0213449532440357  7.9428739437860667
  6.8510131307201867  1.1366371291232191  2.9852704438310584
  6.7900318785763023  9.0146703994610373 12.8981866281466040
  2.4484366712243646  6.4786680063410911 11.7114470466823306
 -4.3651355784472479 10.4443743188465756  1.9518886808390845
 -2.5401752779302829  6.4844083906866175 11.8933030389716805
  4.2191913621190311  2.4773096587679819  6.8074279788425756
  4.4232265666464352 10.4869507417550452  2.0764473157998484
 -2.4559416918132078  9.3476581927507354  8.0231752338925038
 11.6743156391831118  1.1911666429424079  1.8591837086700422
  2.4331600509100260  1.4242336332732235 12.8407687627814759
  8.9814177926627803  5.2364416434165939  6.6585806086166412
 -0.0107909190941065 10.3399602199558611  8.0938740957755684
 11.3112366001948690  3.7703554885860071  2.4447591557965427
  8.8192067707261881  0.1444161599276746  7.4941343373586600
 -4.4447309813711158  7.7849773954235069  7.3650462219382735
  2.4135377613042079  3.7321806108049129  2.4359860511733729
  8.9709024156641828  7.8916074409017360  2.3954616990628006
  2.4241533997132954  4.2971926586704745  7.4238233322325833
  9.2720815574878426  0.2159031106615468  2.5328906020862516
  2.3471005148095268 11.5767446670377705 12.5127842054229887
 11.2773860882693313  4.1443273506275382  7.4611209684356625
  9.1911119434098811  2.6498352563019023  6.9269890756421271
  4.4695979400479739  0.2267010507877072  2.4052671664657423
  9.3791114067844976  5.3993524674379447  3.0779394700245324
  1.9775384204767334  4.0047085407363205 12.4786244538044908
 -0.0451496030338524 10.6426477915797459 11.9595030933980429
 -3.6660599367024811  7.8632692474431476  9.8910523277013382
  8.5975082707029884  0.9203728050269249  4.9852692846351356
  8.5804992086669376  8.8238478852885986 14.8592954725131605
  1.6313424973731110 11.2689903134802965  9.9869122965002912
  8.5244357857652275  7.1731757334658059  4.8898447192179209
  1.7453607935526050  3.0038096785394872 14.8804111230056524
  3.2362032995128707  4.0928329186063372  4.9181285661207763
  6.8818127422370701  6.7896553287290500  6.9591859528204365
  3.2885183564974185 11.8377570227221174  0.0623052143227163
  2.5300455978208021  9.5598339451184469  8.1575043447488191
  3.9755126421130540  7.9214320488687502 10.0217282729871222
  3.4848947604414828  0.0238148894935083 14.8545484410634892
 -1.8286908801310311  4.8312208913920820  9.9245833036888822
  5.0459526572369136  0.7515731717437962  4.9344797012036903
  1.6730250453047610  4.6091722573580478  9.9407300546300643
  5.1058622387207615  8.8646403267174545  0.0838124918017357
  4.4290853538404313  5.3428768062317218  2.8603240256931355
 11.1776033585335473  1.4172167639416311 12.9499276368592753
 -1.7846370464244314 11.0628033424639529  9.9490765838806627
  4.9236633886421304  5.0247615764545168  6.7603054847207300
  5.2182192512281889  6.8904742649382635  4.8797962555484435
 10.5113675907627364  3.8709682378952883  4.9520079308394722
  4.7718037784579668 -0.0011885833383685  7.4570455126923054
 -2.4418772439684058 11.6436742431794755 12.4230231282740338
  6.8944575968995068  9.5219252872177353  1.9306494182175042
 -2.1393437959605563  9.0854838814885372 11.7162059035918649
 -0.0107548049091565  2.8479082454350420  1.9829891728403757
  6.7460132781558197  1.6747236400428280  6.7640212079460618
 -0.0439224331798297  5.5989230093606999 11.7606979815889048
  2.0127122779847983  1.1476280958711886  1.8865391080716318
 -1.7794634176403288  3.0886831770287029 14.8805881958806676
 -4.8876664307883386 10.7122359070506725 12.9919712424622027
  4.8006561437575579 10.7198310631246532 13.0591648227755979
  1.9048458371769270  6.7603408605955124  8.4252289433532912
  2.0644612266131008  9.1068601742169726 11.4940308950515142
  6.9062503295169817  6.2958625159772330  2.9251964570895197
 -2.0803635025566991  6.7272124528087165  8.0640167649425400
  4.7853904263473650  2.7586102217074258  3.1943416256533470
  4.4160954908032650  7.6162281238537712  7.2598965098698249
  8.9051934311705185  2.7979382159697814  3.1039567782960868
  4.3061641169289704  8.1289141767591460 12.6197672510193115
 -4.5403934135371822  8.1287992078102533 12.3708276310349650
 -0.0444499747314756  2.3148772740621268 13.0087278034669946
  4.8217668553580042  7.9190781588350374  2.5045731722339437
  1.5039872917837365 10.6566952368310464 11.4784437626570455
  8.3655399541245661  9.1765358397402519 13.2891964078589986
 10.0188328342631028  3.9521314019122524  3.4034800764478885
  3.7285189634831690 11.8843464466973394  1.6320363154186661
 -1.5924566311410071  5.1944435834006812  8.3523034269196206
  1.5019002680423557  5.1684580300904104 11.4537894647750971
 -5.2856013004292066  9.1750724896154079  1.5566071868812366
 -1.6033766976063393 10.6080337188710345 11.4986920039991922
 -3.7523508291022112 11.8870267912534189  1.5494028886076814
  1.5448829974003331  2.6778007680572276  1.5700498479402238
 -1.6108056334098597  5.2162552236133770 11.4868548024430659
  8.3269920632528809  1.3411338978010547  6.5367268789065269
 -1.5683184868539912  2.7211606927115950  1.5622986564445218
  9.9935335105815977  3.9805468307735175  6.4927021555360360
 -1.5757844855181440 10.6599586718674040  8.3811229566623915
  8.4217509510744559  6.7442458173485305  6.4586059239909055
 -3.2150977957395406  7.8936469394140181 11.4572508706700624
  1.5094514074335370  5.2068650630114925  8.4138938904208302
  8.4368976333572920  6.6843632531528394  3.3382122100027969
  5.3192966215911239  9.2036808806438977  1.6602672453387131
  5.3357781852765873  6.5857843053443581  6.4692321764373144
  3.6996296719889221  3.9814425125251525  6.4822983272730488
 -3.1521453148352894  7.9232705496384837  8.3386696596872749
  3.0774265726642400  0.0010111976683010 13.2819973270846106
  5.3470278664914952  6.6038963348291349  3.3002481437086808
  3.1456624300168476  7.9111780713262725 11.5192104664759594
 12.1254197512409192  2.6888264658688854 13.3113039742485721
  5.2583119318750713  9.1981223546673245 13.4056177445719129
  8.4080010141004209  1.2738170148827583  3.4114994304249544
  1.5197134895655218  2.6846645593439966 13.3042648898656957
  3.7170907652404068  3.9749583122225585  3.3680631238259724
  3.6839716230297119 11.8727297701529562 13.3772913441297252
  1.5370628800145725 10.7704531893857194  8.4215312830606894
  5.2840187065124180  1.2223740610283782  3.3925918916905231
  5.2014223305168521  1.2280461573281076  6.4899133297039668
