Al  C  H  O Si                          
   1.00000000000000     
    13.7295718099999995   -0.0046245600000000   -0.0014114400000000
    -6.8687391399999997   11.8909148200000008    0.0018197300000000
    -0.0015106500000000    0.0013072700000000   14.8903784300000002
   Al   C    H    O    Si
     1     1     3    72    35
Direct
  0.5573537573575618  0.6667709202244897  0.5646333085548073
  0.7802456210143437  0.7666965963504240  0.4992080054993376
  0.8114523518653001  0.7899638848608078  0.4302280892693249
  0.8381562057794802  0.7529264421152777  0.5406545657684569
  0.7653591525729815  0.8314600290605367  0.5278742241356692
  0.0145972607342118  0.3308284483584590  0.8325198573436198
  0.2100277049055625  0.4247132147460204  0.5371127414617780
  0.5471011574307202  0.0949225366668004  0.2031551320771174
  0.8764945915083341  0.7588145174229008  0.8665220382752383
  0.4480540832367541  0.5458754820318317  0.8024927984812367
  0.1215487449488177  0.8782069212790926  0.1325396358499440
  0.0899205741261409  0.5453183956632263  0.8004609147634949
  0.4287685387668426  0.2158100200195996  0.4597014310908268
  0.7627459701528833  0.8817641579700992  0.1368885097602892
  0.2127554867716131  0.7861812038870607  0.5351172814891774
  0.8999711997387705  0.1000671798017318  0.1236829819033055
  0.2372262419527515  0.1187505285771211  0.8662179209699187
  0.8749624049370447  0.4356214375978304  0.4501983025876162
  0.4332973189081484  0.8716569717621174  0.5418850943567648
  0.9821263697806685  0.3168132470101658  0.1638726934832336
  0.6511946154874665  0.0078065379969601  0.5050131452008599
  0.9986991020503123  0.6512523413809984  0.5000270520726938
  0.3321770372803285  0.3125203678432780  0.1659894839639223
  0.9822602233504508  0.6637279336886678  0.1633297607842090
  0.3374620902249325  0.3370350341059656  0.5010901906652031
  0.6837820425501435  0.0176582200628383  0.1677449802254357
  0.6626805019307692  0.9800640423656769  0.8358233406122155
  0.9986464877302621  0.3462704806582695  0.5009203199611330
  0.7840758627433265  0.2174712771707301  0.4635052705558609
  0.3350402333733443  0.0203716421568298  0.1639005052873156
  0.9073994712529199  0.4525017671530470  0.2067378473748436
  0.3109159814576585  0.3318508878491936  0.8327693669463331
  0.4493006942723846  0.9034296882199585  0.8005255553775680
  0.0700672377478282  0.6642378872587513  0.6663726153781295
  0.6659270362328742  0.0708472029907390  0.3345941632268061
  0.9971377216717847  0.7409751698101195  0.9993741007243304
  0.5905665374401740  0.9292586762251006  0.6687328523195287
  0.9283575336427611  0.6016449562162810  0.3317256007390528
  0.2575814187146885  0.2577094145443433  0.9993027256015451
  0.4081922067423927  0.3419233279055823  0.3331401567030192
  0.7824286155387321  0.5596114930191723  0.4641069370421775
  0.7369385651836334  0.9959713811152473  0.0018527314363407
  0.5749327152885895  0.7942732581866931  0.5326179553323483
  0.5973520812540534  0.6628318865623436  0.6733906343115024
  0.2574779973202753 -0.0008470068071340  0.9988194188180800
  0.0669234681635559  0.4066812177430258  0.6668579277729469
  0.3999771081466360  0.0659772826230602  0.3328908984289842
  0.3329448069247338  0.4061423421945339  0.6665245686922651
  0.7448623776227371  0.7431810142881828  0.0040113759216237
  0.5465081686727910  0.4519069494741850  0.1974822225695774
  0.8762385488135507  0.1179778994226774  0.8693847538135338
  0.3305433231819110  0.9269356996658616  0.6673995200509674
  0.5579211966193669  0.4379680921634535  0.4651905394532219
  0.6650071657579625  0.5867519762039882  0.3324318580268326
  0.9318547030974188  0.3271455209852355  0.3323264747442205
  0.3475015242099773  0.0023723275913159  0.5015918081815844
  0.3125255548581530  0.9804478519504771  0.8333867027187485
  0.9032105634874248  0.8023466321384729  0.1292351260328545
  0.2307467765902811  0.7643521162341930  0.7900992285057947
  0.1189186137092483  0.2389411899248716  0.1322560850713680
  0.5644668580288358  0.1346896120824526  0.4544443494520495
  0.2301274354804130  0.4664364205823489  0.7884991941157399
  0.1954082465468104  0.0967715558981875  0.1237693551061518
  1.0000427395546767  0.2605506053152312  0.9991056124032185
  0.0959310488907542  0.9002968757996823  0.8747863606043227
  0.7991098108072527  0.8993545243067638  0.8766686258295986
  0.4317805549088720  0.5548689768348420  0.5317828443086140
  0.5299490163049770  0.7646650827872492  0.7912105569798497
  0.7661015421653514  0.5298128485866673  0.2078163380174367
  0.1298059418308733  0.5649265206550176  0.5405151045235931
  0.4675803652426220  0.2340592634267038  0.2151503511148135
  0.6701638440146105  0.6611947918537594  0.4966705762442790
  0.7662739094524784  0.2336062303517981  0.2114918489631158
  0.6591610168202711  0.6805284607223325  0.8435242055027027
  0.0147938302309253  0.6839378458681148  0.8327659307476066
  0.0952390082461217  0.1948752049695987  0.8756974089671961
  0.6865308183390439  0.6679008175358147  0.1693720999508851
  0.5582084290559907  0.8929323173810465  0.7731071771742051
  0.9965004287883797  0.7713740380249970  0.8936641887950038
  0.8961334691530055  0.3317774019340529  0.2288277796212400
  0.7711476797990295  0.9994041483588575  0.1067478529758844
  0.1024924271008995  0.4367825749095281  0.5620465238954142
  0.3309209354008991  0.4381144944839163  0.7714019462897129
  0.0008216827988421  0.7717040067104302  0.1051706058584580
  0.3309113467655383  0.8933488416198323  0.7722464767947395
  0.2274076987114829  0.9991706844113012  0.1043082776958923
  0.2260955818662000  0.2260992957824727  0.1045785627245949
  0.1013213491103008  0.4373749251690178  0.7718757032485976
  0.6654597627519927  0.1068741611066558  0.4389353368929748
  0.9999880414200883  0.2284525886250118  0.1040780620640670
  0.8976905574795474  0.3312432308858486  0.4362965001467179
  0.3317502332552410  0.8965961943960915  0.5619223773075486
  0.8983387837203357  0.5619827015413453  0.4358122916365921
  0.1019256241181417  0.6647725208317716  0.7720774829335993
  0.3300558277281720  0.4339298675771027  0.5600547893609955
  0.8958271854113856  0.5616746918082911  0.2273878385624768
  0.7749286965350807  0.7743357815112133  0.1089502223248425
  0.6666503008862619  0.5544799207583673  0.4363782045523092
  0.4317436396467827  0.3326935500179058  0.4391661294043017
  0.1041012143862240  0.6664332455379339  0.5613374054906382
  0.2252302027157208  0.9991804234927185  0.8936102472480368
  0.6662341035193933  0.5586436480459619  0.2256357471089809
  0.5594118292346226  0.6639504954554393  0.7750054829849885
  0.9969152939094053  0.2259685853496400  0.8941431235959590
  0.7694626212712340  0.7707233789465588  0.8974306288446675
  0.6660966896886711  0.1045781279851641  0.2297514295259770
  0.2249432613238506  0.2262311420152072  0.8937977531158371
  0.4377205112723839  0.3339290886615385  0.2282978842322941
  0.7683807533460441  0.9977539550193331  0.8960513787216960
  0.5615900673523612  0.8984058718708468  0.5624737306672726
  0.4373793926185254  0.1040589596195017  0.2291222145484789
  0.4351430841663312  0.1038477668897164  0.4370899630577942
 
  0.00000000E+00  0.00000000E+00  0.00000000E+00
  0.00000000E+00  0.00000000E+00  0.00000000E+00
  0.00000000E+00  0.00000000E+00  0.00000000E+00
  0.00000000E+00  0.00000000E+00  0.00000000E+00
  0.00000000E+00  0.00000000E+00  0.00000000E+00
  0.00000000E+00  0.00000000E+00  0.00000000E+00
  0.00000000E+00  0.00000000E+00  0.00000000E+00
  0.00000000E+00  0.00000000E+00  0.00000000E+00
  0.00000000E+00  0.00000000E+00  0.00000000E+00
  0.00000000E+00  0.00000000E+00  0.00000000E+00
  0.00000000E+00  0.00000000E+00  0.00000000E+00
  0.00000000E+00  0.00000000E+00  0.00000000E+00
  0.00000000E+00  0.00000000E+00  0.00000000E+00
  0.00000000E+00  0.00000000E+00  0.00000000E+00
  0.00000000E+00  0.00000000E+00  0.00000000E+00
  0.00000000E+00  0.00000000E+00  0.00000000E+00
  0.00000000E+00  0.00000000E+00  0.00000000E+00
  0.00000000E+00  0.00000000E+00  0.00000000E+00
  0.00000000E+00  0.00000000E+00  0.00000000E+00
  0.00000000E+00  0.00000000E+00  0.00000000E+00
  0.00000000E+00  0.00000000E+00  0.00000000E+00
  0.00000000E+00  0.00000000E+00  0.00000000E+00
  0.00000000E+00  0.00000000E+00  0.00000000E+00
  0.00000000E+00  0.00000000E+00  0.00000000E+00
  0.00000000E+00  0.00000000E+00  0.00000000E+00
  0.00000000E+00  0.00000000E+00  0.00000000E+00
  0.00000000E+00  0.00000000E+00  0.00000000E+00
  0.00000000E+00  0.00000000E+00  0.00000000E+00
  0.00000000E+00  0.00000000E+00  0.00000000E+00
  0.00000000E+00  0.00000000E+00  0.00000000E+00
  0.00000000E+00  0.00000000E+00  0.00000000E+00
  0.00000000E+00  0.00000000E+00  0.00000000E+00
  0.00000000E+00  0.00000000E+00  0.00000000E+00
  0.00000000E+00  0.00000000E+00  0.00000000E+00
  0.00000000E+00  0.00000000E+00  0.00000000E+00
  0.00000000E+00  0.00000000E+00  0.00000000E+00
  0.00000000E+00  0.00000000E+00  0.00000000E+00
  0.00000000E+00  0.00000000E+00  0.00000000E+00
  0.00000000E+00  0.00000000E+00  0.00000000E+00
  0.00000000E+00  0.00000000E+00  0.00000000E+00
  0.00000000E+00  0.00000000E+00  0.00000000E+00
  0.00000000E+00  0.00000000E+00  0.00000000E+00
  0.00000000E+00  0.00000000E+00  0.00000000E+00
  0.00000000E+00  0.00000000E+00  0.00000000E+00
  0.00000000E+00  0.00000000E+00  0.00000000E+00
  0.00000000E+00  0.00000000E+00  0.00000000E+00
  0.00000000E+00  0.00000000E+00  0.00000000E+00
  0.00000000E+00  0.00000000E+00  0.00000000E+00
  0.00000000E+00  0.00000000E+00  0.00000000E+00
  0.00000000E+00  0.00000000E+00  0.00000000E+00
  0.00000000E+00  0.00000000E+00  0.00000000E+00
  0.00000000E+00  0.00000000E+00  0.00000000E+00
  0.00000000E+00  0.00000000E+00  0.00000000E+00
  0.00000000E+00  0.00000000E+00  0.00000000E+00
  0.00000000E+00  0.00000000E+00  0.00000000E+00
  0.00000000E+00  0.00000000E+00  0.00000000E+00
  0.00000000E+00  0.00000000E+00  0.00000000E+00
  0.00000000E+00  0.00000000E+00  0.00000000E+00
  0.00000000E+00  0.00000000E+00  0.00000000E+00
  0.00000000E+00  0.00000000E+00  0.00000000E+00
  0.00000000E+00  0.00000000E+00  0.00000000E+00
  0.00000000E+00  0.00000000E+00  0.00000000E+00
  0.00000000E+00  0.00000000E+00  0.00000000E+00
  0.00000000E+00  0.00000000E+00  0.00000000E+00
  0.00000000E+00  0.00000000E+00  0.00000000E+00
  0.00000000E+00  0.00000000E+00  0.00000000E+00
  0.00000000E+00  0.00000000E+00  0.00000000E+00
  0.00000000E+00  0.00000000E+00  0.00000000E+00
  0.00000000E+00  0.00000000E+00  0.00000000E+00
  0.00000000E+00  0.00000000E+00  0.00000000E+00
  0.00000000E+00  0.00000000E+00  0.00000000E+00
  0.00000000E+00  0.00000000E+00  0.00000000E+00
  0.00000000E+00  0.00000000E+00  0.00000000E+00
  0.00000000E+00  0.00000000E+00  0.00000000E+00
  0.00000000E+00  0.00000000E+00  0.00000000E+00
  0.00000000E+00  0.00000000E+00  0.00000000E+00
  0.00000000E+00  0.00000000E+00  0.00000000E+00
  0.00000000E+00  0.00000000E+00  0.00000000E+00
  0.00000000E+00  0.00000000E+00  0.00000000E+00
  0.00000000E+00  0.00000000E+00  0.00000000E+00
  0.00000000E+00  0.00000000E+00  0.00000000E+00
  0.00000000E+00  0.00000000E+00  0.00000000E+00
  0.00000000E+00  0.00000000E+00  0.00000000E+00
  0.00000000E+00  0.00000000E+00  0.00000000E+00
  0.00000000E+00  0.00000000E+00  0.00000000E+00
  0.00000000E+00  0.00000000E+00  0.00000000E+00
  0.00000000E+00  0.00000000E+00  0.00000000E+00
  0.00000000E+00  0.00000000E+00  0.00000000E+00
  0.00000000E+00  0.00000000E+00  0.00000000E+00
  0.00000000E+00  0.00000000E+00  0.00000000E+00
  0.00000000E+00  0.00000000E+00  0.00000000E+00
  0.00000000E+00  0.00000000E+00  0.00000000E+00
  0.00000000E+00  0.00000000E+00  0.00000000E+00
  0.00000000E+00  0.00000000E+00  0.00000000E+00
  0.00000000E+00  0.00000000E+00  0.00000000E+00
  0.00000000E+00  0.00000000E+00  0.00000000E+00
  0.00000000E+00  0.00000000E+00  0.00000000E+00
  0.00000000E+00  0.00000000E+00  0.00000000E+00
  0.00000000E+00  0.00000000E+00  0.00000000E+00
  0.00000000E+00  0.00000000E+00  0.00000000E+00
  0.00000000E+00  0.00000000E+00  0.00000000E+00
  0.00000000E+00  0.00000000E+00  0.00000000E+00
  0.00000000E+00  0.00000000E+00  0.00000000E+00
  0.00000000E+00  0.00000000E+00  0.00000000E+00
  0.00000000E+00  0.00000000E+00  0.00000000E+00
  0.00000000E+00  0.00000000E+00  0.00000000E+00
  0.00000000E+00  0.00000000E+00  0.00000000E+00
  0.00000000E+00  0.00000000E+00  0.00000000E+00
  0.00000000E+00  0.00000000E+00  0.00000000E+00
  0.00000000E+00  0.00000000E+00  0.00000000E+00
  0.00000000E+00  0.00000000E+00  0.00000000E+00
  0.00000000E+00  0.00000000E+00  0.00000000E+00
