Al  C  H  O Si 
 1.0000000000000000
    13.7295718099999995   -0.0046245600000000   -0.0014114400000000
    -6.8687391399999997   11.8909148200000008    0.0018197300000000
    -0.0015106500000000    0.0013072700000000   14.8903784300000002
   1   1   3  72  35
Cartesian
  3.0371356729538004  7.9034530177964086  8.3964684159779068
  5.4025893744258875  9.1332175182008424  7.4964757935044259
  5.6050454323032488  9.5031868339041345  6.4850065048215848
  6.3275846769091233  8.9350323024433731  8.0462876562639529
  4.7705282867500562  9.8526654969982985  8.0266338324739728
 -2.0689710025899091  3.9510162995876397 12.4158744749353751
 -0.0373530511410058  4.9902204137185802  8.0126788008715497
  6.8647648685780291  1.1278315254575511  3.0290849302850651
  6.8298419712450977  9.0324144900568939 12.8883803739200804
  2.4039213427013149  6.4891136021188824 11.9527976359586319
 -4.3623952596791513 10.4396285055201865  1.9623759925246942
 -2.4987300070189238  6.4989075238187484 11.9213431868906419
  4.4698688104008228  2.6006216864698719  6.8620048713815303
  4.4040962730212945 10.4658052443142786  2.0319745065305530
 -2.4849701840776919  9.3598888409081855  7.9728600101357072
 11.6713718949558327  1.1691422476714488  1.8473339720924375
  2.4395895262457441  1.4123910449063262 12.9020660635577258
  8.9524332464140670  5.1463769394381993  6.7249059784708880
 -0.0554563463219564 10.4094391218869955  8.0716310773214133
 11.3190668820514695  3.7473727692093357  2.4554777172607185
  8.9265842371603981  0.0667016141262991  7.5072000488981150
 -4.4636173524393055  7.7198525312552144  7.4341366931894051
  2.4040642265967063  3.7198433516478562  2.4851739998215208
  8.9178736561524836  7.8933609562453180  2.4351711663613314
  2.3371179427054289  3.9834219232564569  7.4663987485785306
  9.2614131247594678  0.2042014162446636  2.4772467482822513
  2.3673944998839560 11.6582722776069101 12.4346897230534381
 -2.4296159470054204  4.1462877275950145  7.4657635827788207
  9.2869607894461268  2.5611298277485219  6.8850847290694803
  4.4715724584170262  0.2178975654974470  2.4510483933951877
  9.3498112690276436  5.3711036592350894  3.0270552437254925
  1.9911815422911572  3.9477295106925241 12.4124917786469329
 -0.0344667665143448 10.7508821120321194 11.8964256219726945
 -3.5987229847021043  7.8988539135938005  9.9199039110002527
  8.6741067649210795  0.8163810050148125  4.9709899652195020
  8.5957002558126145  8.7914020429471105 -0.0118167494237200
  1.7424602362334716 11.0384822798311149  9.9466271681911493
  8.6440401297060898  7.1133077679895722  4.9323040056324485
  1.7689259004869984  3.0573739373939706 -0.0006472263351515
  3.2795844156984386  4.0464908909131037  4.9651551956330291
  6.8899178867247164  6.7061338202479996  6.8909052103750668
  3.2920390205715426 11.8346869765208691  0.0142556970915173
  2.3810083511112734  9.4059870771614413  7.9141389948273231
  3.6181712159226365  7.8684288190014247 10.0125752006920674
  3.5573262089642923  0.0059465053439299 -0.0094581414836169
 -1.8840443629222596  4.8345880974294504  9.9396936607338553
  5.0338178901297628  0.8094496009847602  4.9581748765745681
  1.7959265165561225  4.8137733432587693  9.9293103082541290
  5.1233153537670875  8.8470601805975679  0.0356940702755444
  4.4026898108426824  5.3653354535665541  2.9433668227090695
 11.2188834778811319  1.4087458134798201 12.9326461886249611
 -1.8542317959965515 11.0426465497790236  9.9404159458669863
  4.6477596930957583  5.2382821748478348  6.9180517301199975
  5.0881102260520512  7.0026671556606175  4.9349909229260378
 10.5235958849442905  3.9361464971292790  4.9510108058134712
  4.7255011859910017  0.0451187352217862  7.4666042550932774
 -2.4323504397105715 11.6687021199056957 12.4229387249708889
  6.8851889300291100  9.5439945269641449  1.9108074354149163
 -2.0837393786536920  9.1018750205306169 11.7612728144198098
 -0.0065371167077513  2.8226318349880550  1.9741586110574221
  6.8471635858666078  1.5500950791318613  6.7715871264539302
 -0.0392640748664549  5.5465145915785294 11.7323307415835174
  2.0358815398461552  1.1504804096646477  1.8589676078656283
 -1.7949269257493028  3.0841535620566618 -0.0038062842683071
 -4.8525752216969309 10.7080930904790836 13.0467750074178124
  4.7976196363087213 10.6988626566639233 13.0230675539587377
  2.0952636383149299  6.5663218337811990  7.9039999708800472
  2.0231434519285245  9.0922676641961502 11.7856018223459884
  6.8788391103529332  6.2888380220486333  3.1031772011938998
 -2.0589544144052492  6.7311522940256170  8.0671445934257733
  4.8070029141986579  2.7720221307445798  3.1691608824408073
  4.6356784791006067  7.8723709426280797  7.3974961977991596
  8.9240898044210795  2.7681228500666486  3.1595186165436329
  4.3870206862156831  8.0963272935528021 12.5319364589305273
 -4.4904211251543273  8.1400177809265966 12.3961516326826118
 -0.0323768977656874  2.3243159988966413 13.0456704750202785
  4.8452877773332776  7.9209781924247711  2.4837330399387070
  1.5356758193798259 10.6170627711501346 11.5021797993877879
 -5.3411268477732179  9.1754838412658586 13.3081974972332429
 10.0234824305849983  3.9457129611960147  3.4021005950825400
 10.5915209266511976 -0.0217233086955429  1.5790646262542889
 -1.5933763974325710  5.1913919155858350  8.3801272473075645
  1.5398426335733710  5.2051544589748993 11.4883607382108544
 -5.2935661265322942  9.1765963200067180  1.5620389668939600
 -1.5959991826173845 10.6354558702431969 11.4961107805328826
  3.1388070731988282 -0.0132435283793893  1.5590881559313619
  1.5552990200946208  2.6825977899635118  1.5677053323827785
 -1.6110768865402512  5.2075804628763214 11.4993017782767009
  8.4253497782855646  1.2404213368944250  6.5261052386704499
 -1.5676658401490668  2.7005059236382341  1.5581548959587670
 10.0235816926511792  3.9412875233620031  6.4990209715724854
 -1.6241750859305588 10.6832980049977007  8.3700165333846765
  8.4692274221399764  6.6696215429051744  6.4863792025486058
 -3.1624686833120479  7.9131378774346395 11.4932103800274650
  1.5493763642719556  5.1259319304117259  8.3416351338149983
  8.4453671511771020  6.6641919453816705  3.3743594167908078
  5.3200138838634761  9.2006463310630711  1.6022396793344864
  5.3349299489326238  6.6246899119897282  6.4840504940219006
  3.6653349948131124  3.9626123596179887  6.5453458001590699
 -3.1328634740316543  7.9249788805415422  8.3591455328316968
  3.1076650099163308 -0.0021778140135120 13.3166208995029436
  5.3085874000670232  6.6401265691141802  3.3513972362517350
  3.1151596608585854  7.8925908199241155 11.5333391064939192
 12.1333448869803231  2.6882143704644674 13.3178912013463773
  5.2757241250387441  9.1712014897588343 13.3387892877742757
  8.4341655149759074  1.2333260448256624  3.4164186857728520
  1.5340658428280649  2.6900813792942158 13.3175440549064472
  3.7199548021940605  3.9618996518533058  3.3982132819064836
 10.5696125132604237 -0.0243773574596235 13.3250692385340201
  1.5327300922740130 10.6749886238148139  8.3664036690035903
  5.2940398899470349  1.2338869151524055  3.4072583670721408
  5.2729649512104242  1.2404324863877247  6.5119809317774946
