Al  C  H  O Si                          
   1.00000000000000     
    13.7295718099999995   -0.0046245600000000   -0.0014114400000000
    -6.8687391399999997   11.8909148200000008    0.0018197300000000
    -0.0015106500000000    0.0013072700000000   14.8903784300000002
   Al   C    H    O    Si
     1     1     3    72    35
Direct
  0.5615578199999973  0.6703520499999982  0.5571561699999990
  0.7310413599999990  0.6668305600000011  0.6715565699999999
  0.7615900400000015  0.6825683799999993  0.6024230599999996
  0.7149288199999972  0.5839395900000000  0.6938292900000036
  0.7915338299999988  0.7326769100000021  0.7159740499999998
  0.0167988500000007  0.3328159200000016  0.8333460500000029
  0.2080270599999992  0.4217494600000009  0.5335998799999970
  0.5471867199999991  0.0962313899999998  0.2007221699999988
  0.8744825100000000  0.7590100199999981  0.8663081999999989
  0.4518221100000019  0.5449048899999980  0.7858677799999967
  0.1215768200000014  0.8784585100000015  0.1309016399999976
  0.0883095399999974  0.5456560699999997  0.7989943899999972
  0.4117122899999970  0.2085784200000020  0.4572975399999990
  0.7632071499999995  0.8820172900000003  0.1392847600000024
  0.2143440899999973  0.7862617700000030  0.5389093799999998
  0.9002622699999989  0.1003121800000031  0.1253260800000007
  0.2375334700000025  0.1201158499999977  0.8625960199999980
  0.8738356300000021  0.4405031699999995  0.4478513899999967
  0.4342449500000001  0.8701150500000026  0.5434427400000033
  0.9830133800000027  0.3172833400000030  0.1648775099999966
  0.6486691599999972  0.0124560499999973  0.5035516900000019
  0.0039067000000017  0.6545072700000034  0.4945442000000000
  0.3326869099999996  0.3143018900000030  0.1639963100000017
  0.9856350299999974  0.6642036499999975  0.1610951099999980
  0.3575816800000027  0.3615623299999982  0.4986703000000006
  0.6842010499999986  0.0181633799999972  0.1702677199999982
  0.6584025599999990  0.9739659000000032  0.8401756499999991
  0.9956104999999980  0.3491038499999988  0.5016860300000019
  0.7809620800000019  0.2230443400000013  0.4653098400000033
  0.3353113499999978  0.0187410799999981  0.1617002699999972
  0.9105445100000011  0.4543317700000031  0.2063589600000029
  0.3128604300000006  0.3372274600000011  0.8384531199999969
  0.4447623000000007  0.8952621500000006  0.8030756300000021
  0.0638554599999992  0.6611370800000032  0.6643057100000007
  0.6649119599999977  0.0774067500000015  0.3350156600000034
  0.9964345400000028  0.7422709100000020  0.9979906399999976
  0.5930345200000033  0.9474638100000021  0.6706040400000006
  0.9226158800000022  0.6029515700000019  0.3284573199999983
  0.2537667599999978  0.2527323300000006  0.9996856699999981
  0.4084980900000019  0.3447091399999991  0.3304564199999973
  0.7873006599999997  0.5721568900000022  0.4674881799999966
  0.7376696700000025  0.9961261899999982  0.0041946999999993
  0.5858198800000025  0.8039255099999991  0.5471163200000007
  0.6237839400000027  0.6681078200000030  0.6724166099999991
  0.2554104299999977  0.0022975999999986  0.9977477899999982
  0.0703644000000025  0.4064976900000019  0.6668886699999987
  0.3992063800000025  0.0634152499999985  0.3315128099999995
  0.3155883299999971  0.3871836699999989  0.6677928699999995
  0.7447983300000018  0.7454922900000014  0.0056228099999984
  0.5475239100000024  0.4493891400000010  0.1918977400000017
  0.8741638300000005  0.1197365700000006  0.8699243300000035
  0.3355868299999969  0.9307255599999991  0.6681424499999977
  0.5704208100000017  0.4227710999999985  0.4543872599999972
  0.6700944000000035  0.5792009099999973  0.3276448299999970
  0.9288108300000033  0.3266909199999972  0.3330231600000033
  0.3472031900000019  0.0001051400000023  0.5008726000000010
  0.3124791700000031  0.9796144700000013  0.8342912000000027
  0.9029790900000023  0.8012693200000029  0.1295696399999997
  0.2266598799999997  0.7644093199999986  0.7867887100000033
  0.1187569000000011  0.2388072899999969  0.1334698100000011
  0.5617578100000031  0.1408219799999983  0.4544596200000015
  0.2331136399999991  0.4714592199999998  0.7898750399999983
  0.1955810999999983  0.0967388899999975  0.1270510700000003
  0.0002814500000028  0.2595175100000020  0.9997823599999975
  0.0951611400000019  0.9010885599999980  0.8726975599999989
  0.8008959800000000  0.9019043099999990  0.8773257100000009
  0.4227348900000010  0.5683505200000027  0.5662300799999969
  0.5337377999999973  0.7659238000000030  0.7721944299999990
  0.7680725000000024  0.5295941199999987  0.1962713100000002
  0.1318828300000021  0.5658732699999973  0.5417286799999985
  0.4642030799999972  0.2319613700000005  0.2144577199999986
  0.6412008100000008  0.6405666699999983  0.4868862699999994
  0.7667881200000011  0.2354218899999978  0.2088031700000030
  0.6564279400000004  0.6838951399999971  0.8471180700000005
  0.0115274899999989  0.6838199199999977  0.8307417400000006
  0.0944015500000006  0.1947962799999985  0.8740455800000007
  0.6845943300000030  0.6661688000000012  0.1682778400000018
  0.5581458600000033  0.8962865499999992  0.7708707399999994
  0.9959331399999982  0.7722964399999981  0.8925918699999968
  0.8963860900000000  0.3327936800000018  0.2288794800000034
  0.7714492300000018  0.9996280399999975  0.1096298699999991
  0.1025855099999973  0.4368675500000023  0.5612281900000013
  0.3273265999999992  0.4348777000000013  0.7692699300000001
  0.0010566099999991  0.7716595899999987  0.1044964499999992
  0.3298271399999990  0.8924573299999992  0.7721930100000023
  0.2271955800000001  0.9997446599999975  0.1040679500000010
  0.2253090700000016  0.2252385099999969  0.1057688499999969
  0.1027253500000000  0.4390393600000024  0.7717551300000025
  0.6629660899999976  0.1129280199999982  0.4391608399999996
  0.0001261199999973  0.2285307200000020  0.1053315200000000
  0.8953083999999976  0.3352810700000006  0.4364905099999987
  0.3336222100000015  0.8967864000000034  0.5628435300000021
  0.8971320599999970  0.5674830800000024  0.4339345799999990
  0.0981882900000031  0.6640031900000025  0.7694822899999991
  0.3287815999999992  0.4375907499999983  0.5652841899999999
  0.8958806600000031  0.5622943099999986  0.2241368700000024
  0.7747311299999993  0.7742175400000022  0.1114761899999976
  0.6658045400000034  0.5541537399999967  0.4344991099999973
  0.4373302999999993  0.3351341400000010  0.4355162399999983
  0.1038556000000028  0.6662937999999983  0.5600517499999995
  0.2246675800000020  0.0004326399999997  0.8921707399999974
  0.6674478400000012  0.5554154800000006  0.2215475300000023
  0.5627351400000009  0.6657113999999993  0.7732354999999984
  0.9967251099999999  0.2266329899999988  0.8944323500000024
  0.7703111300000032  0.7739180499999989  0.9003854600000025
  0.6661598299999980  0.1073078200000026  0.2293463199999977
  0.2239601100000002  0.2260427499999977  0.8938128100000000
  0.4380442599999981  0.3345363099999972  0.2262793200000033
  0.7681475300000002  0.9989483199999967  0.8984207299999980
  0.5649809100000027  0.9059259699999984  0.5654319799999996
  0.4363746300000031  0.1029457300000018  0.2279603300000019
  0.4305148899999978  0.1034392800000035  0.4359709200000026
 
  0.00000000E+00  0.00000000E+00  0.00000000E+00
  0.00000000E+00  0.00000000E+00  0.00000000E+00
  0.00000000E+00  0.00000000E+00  0.00000000E+00
  0.00000000E+00  0.00000000E+00  0.00000000E+00
  0.00000000E+00  0.00000000E+00  0.00000000E+00
  0.00000000E+00  0.00000000E+00  0.00000000E+00
  0.00000000E+00  0.00000000E+00  0.00000000E+00
  0.00000000E+00  0.00000000E+00  0.00000000E+00
  0.00000000E+00  0.00000000E+00  0.00000000E+00
  0.00000000E+00  0.00000000E+00  0.00000000E+00
  0.00000000E+00  0.00000000E+00  0.00000000E+00
  0.00000000E+00  0.00000000E+00  0.00000000E+00
  0.00000000E+00  0.00000000E+00  0.00000000E+00
  0.00000000E+00  0.00000000E+00  0.00000000E+00
  0.00000000E+00  0.00000000E+00  0.00000000E+00
  0.00000000E+00  0.00000000E+00  0.00000000E+00
  0.00000000E+00  0.00000000E+00  0.00000000E+00
  0.00000000E+00  0.00000000E+00  0.00000000E+00
  0.00000000E+00  0.00000000E+00  0.00000000E+00
  0.00000000E+00  0.00000000E+00  0.00000000E+00
  0.00000000E+00  0.00000000E+00  0.00000000E+00
  0.00000000E+00  0.00000000E+00  0.00000000E+00
  0.00000000E+00  0.00000000E+00  0.00000000E+00
  0.00000000E+00  0.00000000E+00  0.00000000E+00
  0.00000000E+00  0.00000000E+00  0.00000000E+00
  0.00000000E+00  0.00000000E+00  0.00000000E+00
  0.00000000E+00  0.00000000E+00  0.00000000E+00
  0.00000000E+00  0.00000000E+00  0.00000000E+00
  0.00000000E+00  0.00000000E+00  0.00000000E+00
  0.00000000E+00  0.00000000E+00  0.00000000E+00
  0.00000000E+00  0.00000000E+00  0.00000000E+00
  0.00000000E+00  0.00000000E+00  0.00000000E+00
  0.00000000E+00  0.00000000E+00  0.00000000E+00
  0.00000000E+00  0.00000000E+00  0.00000000E+00
  0.00000000E+00  0.00000000E+00  0.00000000E+00
  0.00000000E+00  0.00000000E+00  0.00000000E+00
  0.00000000E+00  0.00000000E+00  0.00000000E+00
  0.00000000E+00  0.00000000E+00  0.00000000E+00
  0.00000000E+00  0.00000000E+00  0.00000000E+00
  0.00000000E+00  0.00000000E+00  0.00000000E+00
  0.00000000E+00  0.00000000E+00  0.00000000E+00
  0.00000000E+00  0.00000000E+00  0.00000000E+00
  0.00000000E+00  0.00000000E+00  0.00000000E+00
  0.00000000E+00  0.00000000E+00  0.00000000E+00
  0.00000000E+00  0.00000000E+00  0.00000000E+00
  0.00000000E+00  0.00000000E+00  0.00000000E+00
  0.00000000E+00  0.00000000E+00  0.00000000E+00
  0.00000000E+00  0.00000000E+00  0.00000000E+00
  0.00000000E+00  0.00000000E+00  0.00000000E+00
  0.00000000E+00  0.00000000E+00  0.00000000E+00
  0.00000000E+00  0.00000000E+00  0.00000000E+00
  0.00000000E+00  0.00000000E+00  0.00000000E+00
  0.00000000E+00  0.00000000E+00  0.00000000E+00
  0.00000000E+00  0.00000000E+00  0.00000000E+00
  0.00000000E+00  0.00000000E+00  0.00000000E+00
  0.00000000E+00  0.00000000E+00  0.00000000E+00
  0.00000000E+00  0.00000000E+00  0.00000000E+00
  0.00000000E+00  0.00000000E+00  0.00000000E+00
  0.00000000E+00  0.00000000E+00  0.00000000E+00
  0.00000000E+00  0.00000000E+00  0.00000000E+00
  0.00000000E+00  0.00000000E+00  0.00000000E+00
  0.00000000E+00  0.00000000E+00  0.00000000E+00
  0.00000000E+00  0.00000000E+00  0.00000000E+00
  0.00000000E+00  0.00000000E+00  0.00000000E+00
  0.00000000E+00  0.00000000E+00  0.00000000E+00
  0.00000000E+00  0.00000000E+00  0.00000000E+00
  0.00000000E+00  0.00000000E+00  0.00000000E+00
  0.00000000E+00  0.00000000E+00  0.00000000E+00
  0.00000000E+00  0.00000000E+00  0.00000000E+00
  0.00000000E+00  0.00000000E+00  0.00000000E+00
  0.00000000E+00  0.00000000E+00  0.00000000E+00
  0.00000000E+00  0.00000000E+00  0.00000000E+00
  0.00000000E+00  0.00000000E+00  0.00000000E+00
  0.00000000E+00  0.00000000E+00  0.00000000E+00
  0.00000000E+00  0.00000000E+00  0.00000000E+00
  0.00000000E+00  0.00000000E+00  0.00000000E+00
  0.00000000E+00  0.00000000E+00  0.00000000E+00
  0.00000000E+00  0.00000000E+00  0.00000000E+00
  0.00000000E+00  0.00000000E+00  0.00000000E+00
  0.00000000E+00  0.00000000E+00  0.00000000E+00
  0.00000000E+00  0.00000000E+00  0.00000000E+00
  0.00000000E+00  0.00000000E+00  0.00000000E+00
  0.00000000E+00  0.00000000E+00  0.00000000E+00
  0.00000000E+00  0.00000000E+00  0.00000000E+00
  0.00000000E+00  0.00000000E+00  0.00000000E+00
  0.00000000E+00  0.00000000E+00  0.00000000E+00
  0.00000000E+00  0.00000000E+00  0.00000000E+00
  0.00000000E+00  0.00000000E+00  0.00000000E+00
  0.00000000E+00  0.00000000E+00  0.00000000E+00
  0.00000000E+00  0.00000000E+00  0.00000000E+00
  0.00000000E+00  0.00000000E+00  0.00000000E+00
  0.00000000E+00  0.00000000E+00  0.00000000E+00
  0.00000000E+00  0.00000000E+00  0.00000000E+00
  0.00000000E+00  0.00000000E+00  0.00000000E+00
  0.00000000E+00  0.00000000E+00  0.00000000E+00
  0.00000000E+00  0.00000000E+00  0.00000000E+00
  0.00000000E+00  0.00000000E+00  0.00000000E+00
  0.00000000E+00  0.00000000E+00  0.00000000E+00
  0.00000000E+00  0.00000000E+00  0.00000000E+00
  0.00000000E+00  0.00000000E+00  0.00000000E+00
  0.00000000E+00  0.00000000E+00  0.00000000E+00
  0.00000000E+00  0.00000000E+00  0.00000000E+00
  0.00000000E+00  0.00000000E+00  0.00000000E+00
  0.00000000E+00  0.00000000E+00  0.00000000E+00
  0.00000000E+00  0.00000000E+00  0.00000000E+00
  0.00000000E+00  0.00000000E+00  0.00000000E+00
  0.00000000E+00  0.00000000E+00  0.00000000E+00
  0.00000000E+00  0.00000000E+00  0.00000000E+00
  0.00000000E+00  0.00000000E+00  0.00000000E+00
  0.00000000E+00  0.00000000E+00  0.00000000E+00
  0.00000000E+00  0.00000000E+00  0.00000000E+00
  0.00000000E+00  0.00000000E+00  0.00000000E+00
