Al  C  H  O Si 
 1.0000000000000000
    13.7295718099999995   -0.0046245600000000   -0.0014114400000000
    -6.8687391399999997   11.8909148200000008    0.0018197300000000
    -0.0015106500000000    0.0013072700000000   14.8903784300000002
   1   1   3  72  35
Cartesian
  3.1046333837746061  7.9692305216766783  8.2966934704758977
  5.4555851940474716  7.9267225494583613  9.9999130950105766
  5.7670109461327890  8.1136279761636541  8.9704744898706750
  5.8036897227830728  6.9411767157078428 10.3314342271746256
  5.8337724041394416  8.7094742030982850 10.6613406222041611
 -2.0566436129291228  3.9584974764609617 12.4094199721909586
 -0.0415706471414077  5.0147224297355315  7.9459779958338679
  6.8513478297826476  1.1420111617535329  2.9882318645140411
  6.7915198971255295  9.0224118972306648 12.8998038487219056
  2.4593273879084672  6.4783554949072091 11.7022225001205271
 -4.3649024164441030 10.4452841998023427  1.9506019156252070
 -2.5367240349247666  6.4889859580158715 11.8981971336501324
  4.2192718768723854  2.4788820486774581  6.8091318749216914
  4.4199502793280168 10.4846450506878384  2.0745305981550626
 -2.4585885216354724  9.3490849862527714  8.0256928579850051
 11.6710079629711316  1.1888041059297580  1.8650646332533971
  2.4348853127364984  1.4283164989969392 12.8442644841866720
  8.9710111204462120  5.2345300297955122  6.6682449077734551
 -0.0154170278583786 10.3451661777147894  8.0930385174038069
 11.3167672227624099  3.7684587048109841  2.4542784241033404
  8.8196317646270828  0.1457722981108777  7.4971823322147229
 -4.4427494678691506  7.7833186326685233  7.3651358008033947
  2.4085433864473309  3.7360128586346737  2.4420694939896328
  8.9698619568227205  7.8936414917532058  2.3985846577237488
  2.4252127095911500  4.2983051069397504  7.4255427195339809
  9.2687707144004889  0.2130376614978280  2.5344181289307550
  2.3483983177068350 11.5793990687637418 12.5113764354291508
 11.2706447041190962  4.1472157222866146  7.4695248700091739
  9.1895386498237013  2.6491979276209712  6.9279432041613838
  4.4747093962982971  0.2215093043700125  2.4073390443868408
  9.3803880889388616  5.3984792762483060  3.0723045890298608
  1.9778456774019666  4.0095922446049785 12.4850563318146683
 -0.0441394002352471 10.6444789739568044 11.9591014187021685
 -3.6654735481915401  7.8620978261429402  9.8928763779379629
  8.5967636373158740  0.9178001014111457  4.9877123334245690
  8.5806467043335832  8.8229767360815377 14.8604026242738119
  1.6332152246753324 11.2643455965662245  9.9864350279629193
  8.5251077450724360  7.1658084493619709  4.8906487850064169
  1.7481569822392535  3.0040446377683261 -0.0045787646047654
  3.2402874950782294  4.0974498932525387  4.9206718554422029
  6.8785983119476031  6.8004390567989690  6.9610058551658467
  3.2857514199683711 11.8414457612175088  0.0632321746330249
  2.5202749927353123  9.5574158306024533  8.1474051277858628
  3.9742122790287602  7.9424074820000818 10.0128731277567375
  3.4893869769609505  0.0274437307857045 14.8564858553104990
 -1.8270609463243583  4.8341758054787327  9.9308650678920749
  5.0448490516458371  0.7526525589334410  4.9359031380725833
  1.6724202093360678  4.6033815680827699  9.9439476829031079
  5.1051615907139203  8.8611483053225832  0.0840311252699748
  4.4302421747071055  5.3413667897583963  2.8574749382139504
 11.1781416616521661  1.4208719576061819 12.9524865375965135
 -1.7864569309872480 11.0664998559068657  9.9501139341953184
  4.9270426508681924  5.0250912000299897  6.7659624696765386
  5.2212342671758067  6.8845581129749363  4.8788637005650353
 10.5077171980674393  3.8807939119618231  4.9581244068643953
 -2.1032668326602955 11.8912141445236319  7.4595124240739370
 -2.4397713705564392 11.6481577843960551 12.4242532770586038
  6.8936105847416025  9.5238187335221554  1.9295245656517594
 -2.1397736787235626  9.0895064547963909 11.7166527381023808
 -0.0100252194258181  2.8392624264540927  1.9876829264310940
  6.7447382170000862  1.6724983876933674  6.7665390934923160
 -0.0389731617865584  5.6060359580521828 11.7620671605817559
  2.0205786273267412  1.1495755142918127  1.8917384999089357
 11.9508782483114473  3.0812744596118438 -0.0041803274128209
 -4.8841388960957888 10.7154680851741233 12.9963023469834784
  4.7996881030348177 10.7219104360685176 13.0642226339764616
  1.8992621914137457  6.7569928739564897  8.4318177492077915
  2.0658941539782072  9.1060758285428562 11.4989077198742873
  6.9073661864239178  6.2940631523276815  2.9224337109104308
 -2.0769594553682071  6.7288491380760611  8.0673886434484139
  4.7797034096414350  2.7563665113484830  3.1931235203035744
  4.4027916927729249  7.6145949296973399  7.2501814545862890
  8.9103055778303606  2.7961085452052283  3.1085043475354204
  4.3136975256341481  8.1302105771971380 12.6142266330427084
 -4.5399681074811431  8.1322771151245110 12.3712869834592052
 -0.0432323500175206  2.3170120206661684 13.0150906857797111
  4.8231930951280093  7.9184104935587678  2.5059667025122803
  1.5055806428002581 10.6560935775356302 11.4794002493451313
  8.3676843845697064  9.1798722898412173 13.2910303989710030
 10.0207784599930267  3.9533751175357867  3.4074424715220530
  3.7253177449016053 11.8830675779126196  1.6331604503637422
 -1.5931219328356572  5.1950140886019067  8.3575503223784686
  1.5058304833002134  5.1705855898176090 11.4550497306603276
 -5.2859794832813805  9.1758701734439736  1.5573944058556659
 -1.6028377032045296 10.6116182508722563 11.4994046400594137
 -3.7478444558720598 11.8869639591274119  1.5511097503550253
  1.5461327068237829  2.6773882497254986  1.5750300656459471
 -1.6064376183873010  5.2211134651715154 11.4923798834204138
  8.3259040109502731  1.3403256419413929  6.5385408608844466
 12.1614263633796078  2.7129518787599141  1.5674304396034064
  9.9885833770971928  3.9832288476631614  6.4988553219371141
 -1.5801520158723901 10.6628036266684347  8.3821141799606469
  8.4186902746662007  6.7443113946902491  6.4612165279735114
 -3.2139439402031402  7.8961572159731208 11.4589522129279064
  1.5074799286181175  5.2025728430968803  8.4176277511100146
  8.4374663270012356  6.6823436975217092  3.3372415564417000
  5.3186599613985059  9.2027177591742912  1.6602380354125188
  5.3342173837581113  6.5868838741324538  6.4699248424235503
  3.7017508613626475  3.9835983891168518  6.4849942141806531
 -3.1515514269048333  7.9230946732918035  8.3404483867523620
  3.0802702239590096  0.0052718047272398 13.2844436252520097
  5.3484343214953105  6.6016011322460066  3.2989952055639087
  3.1523464773081336  7.9143259772559942 11.5141863586301856
 12.1265749095173909  2.6914334289953952 13.3174417646958450
  5.2588406068946174  9.2002083070714420 13.4074013062214270
  8.4086733376420089  1.2732072686002138  3.4143085229567109
  1.5208974902608374  2.6879878236343817 13.3093062169974878
  3.7159756485253794  3.9762128126107448  3.3693751982521296
  3.6834640501121103 11.8760315168284727 13.3785582811334649
  1.5335226372220936 10.7704149266432214  8.4203472626339693
  5.2837850854277928  1.2223988715544050  3.3939869975531676
  5.1996290669095329  1.2285666572870195  6.4913525688999085
