Al  C  H  O Si                          
   1.00000000000000     
    13.7295718099999995   -0.0046245600000000   -0.0014114400000000
    -6.8687391399999997   11.8909148200000008    0.0018197300000000
    -0.0015106500000000    0.0013072700000000   14.8903784300000002
   Al   C    H    O    Si
     1     1     3    72    35
Direct
  0.5573537599999980  0.6667709199999976  0.5646333099999978
  0.7802456200000023  0.7666966000000031  0.4992080099999967
  0.8114523500000033  0.7899638800000020  0.4302280900000000
  0.8381562100000011  0.7529264400000031  0.5406545700000009
  0.7653591500000019  0.8314600300000023  0.5278742200000011
  0.0145972600000022  0.3308284499999985  0.8325198599999979
  0.2100276999999977  0.4247132100000002  0.5371127399999978
  0.5471011599999969  0.0949225399999989  0.2031551299999990
  0.8764945900000001  0.7588145200000014  0.8665220399999995
  0.4480540799999986  0.5458754799999994  0.8024928000000031
  0.1215487400000015  0.8782069199999967  0.1325396399999974
  0.0899205699999968  0.5453183999999993  0.8004609099999982
  0.4287685400000001  0.2158100199999993  0.4597014300000026
  0.7627459699999974  0.8817641600000030  0.1368885099999986
  0.2127554899999993  0.7861812000000015  0.5351172800000015
  0.8999712000000031  0.1000671800000035  0.1236829799999981
  0.2372262399999983  0.1187505299999998  0.8662179199999969
  0.8749624000000011  0.4356214399999985  0.4501982999999967
  0.4332973200000012  0.8716569699999965  0.5418850900000010
  0.9821263700000031  0.3168132500000027  0.1638726899999980
  0.6511946199999983  0.0078065399999971  0.5050131500000035
  0.9986991000000032  0.6512523399999992  0.5000270499999999
  0.3321770399999977  0.3125203700000014  0.1659894800000004
  0.9822602200000006  0.6637279300000003  0.1633297600000034
  0.3374620900000025  0.3370350300000027  0.5010901899999993
  0.6837820399999970  0.0176582200000013  0.1677449800000019
  0.6626805000000004  0.9800640400000020  0.8358233399999975
  0.9986464899999987  0.3462704800000012  0.5009203199999988
  0.7840758600000015  0.2174712799999980  0.4635052699999989
  0.3350402299999971  0.0203716400000005  0.1639005099999977
  0.9073994700000014  0.4525017699999978  0.2067378500000032
  0.3109159799999972  0.3318508899999983  0.8327693700000012
  0.4493006900000012  0.9034296900000029  0.8005255599999970
  0.0700672400000002  0.6642378900000026  0.6663726199999971
  0.6659270399999997  0.0708472000000029  0.3345941600000018
  0.9971377199999978  0.7409751699999987  0.9993740999999972
  0.5905665399999975  0.9292586799999967  0.6687328499999978
  0.9283575299999995  0.6016449600000016  0.3317255999999986
  0.2575814200000011  0.2577094099999968  0.9993027299999966
  0.4081922100000028  0.3419233300000002  0.3331401599999992
  0.7824286199999975  0.5596114900000018  0.4641069400000006
  0.7369385699999995  0.9959713800000003  0.0018527300000031
  0.5749327199999996  0.7942732599999971  0.5326179600000032
  0.5973520800000003  0.6628318899999996  0.6733906300000001
  0.2574779999999990  0.9991529899999989  0.9988194200000038
  0.0669234699999990  0.4066812200000030  0.6668579299999990
  0.3999771100000018  0.0659772799999985  0.3328909000000024
  0.3329448100000008  0.4061423400000024  0.6665245700000000
  0.7448623800000007  0.7431810100000007  0.0040113800000015
  0.5465081700000027  0.4519069500000015  0.1974822199999977
  0.8762385499999965  0.1179778999999996  0.8693847500000018
  0.3305433199999968  0.9269357000000014  0.6673995200000036
  0.5579212000000027  0.4379680899999983  0.4651905400000018
  0.6650071700000026  0.5867519800000025  0.3324318599999998
  0.9318547000000024  0.3271455200000020  0.3323264699999982
  0.3475015200000016  0.0023723300000000  0.5015918100000007
  0.3125255499999966  0.9804478499999973  0.8333866999999984
  0.9032105599999980  0.8023466300000024  0.1292351299999979
  0.2307467799999969  0.7643521199999981  0.7900992300000027
  0.1189186100000015  0.2389411899999985  0.1322560899999985
  0.5644668600000031  0.1346896100000023  0.4544443500000028
  0.2301274399999969  0.4664364200000009  0.7884991900000031
  0.1954082499999998  0.0967715600000005  0.1237693599999972
  0.0000427399999978  0.2605506100000028  0.9991056100000009
  0.0959310499999972  0.9002968799999991  0.8747863600000017
  0.7991098099999974  0.8993545200000028  0.8766686299999975
  0.4317805499999992  0.5548689800000020  0.5317828399999982
  0.5299490200000037  0.7646650800000003  0.7912105600000032
  0.7661015400000011  0.5298128499999990  0.2078163400000008
  0.1298059399999971  0.5649265200000002  0.5405151000000004
  0.4675803700000003  0.2340592600000022  0.2151503500000018
  0.6701638400000007  0.6611947900000033  0.4966705800000000
  0.7662739100000024  0.2336062299999995  0.2114918500000016
  0.6591610199999991  0.6805284599999979  0.8435242099999982
  0.0147938300000021  0.6839378499999995  0.8327659300000008
  0.0952390100000002  0.1948751999999985  0.8756974100000008
  0.6865308200000015  0.6679008199999998  0.1693720999999968
  0.5582084300000005  0.8929323199999999  0.7731071799999967
  0.9965004299999976  0.7713740399999978  0.8936641900000026
  0.8961334700000023  0.3317774000000000  0.2288277800000031
  0.7711476799999986  0.9994041499999966  0.1067478499999979
  0.1024924299999981  0.4367825699999983  0.5620465200000027
  0.3309209399999986  0.4381144899999967  0.7714019499999978
  0.0008216800000014  0.7717040100000006  0.1051706100000018
  0.3309113500000009  0.8933488400000016  0.7722464799999997
  0.2274077000000005  0.9991706799999989  0.1043082799999979
  0.2260955799999991  0.2260993000000013  0.1045785600000002
  0.1013213499999992  0.4373749299999972  0.7718757000000025
  0.6654597599999974  0.1068741599999967  0.4389353400000005
  0.9999880399999981  0.2284525900000034  0.1040780599999991
  0.8976905600000009  0.3312432299999983  0.4362964999999974
  0.3317502299999973  0.8965961899999968  0.5619223799999986
  0.8983387800000031  0.5619827000000015  0.4358122900000012
  0.1019256200000029  0.6647725199999996  0.7720774800000001
  0.3300558299999992  0.4339298700000001  0.5600547900000024
  0.8958271899999986  0.5616746899999967  0.2273878399999987
  0.7749287000000038  0.7743357800000013  0.1089502199999970
  0.6666503000000006  0.5544799199999986  0.4363782000000000
  0.4317436400000005  0.3326935500000019  0.4391661299999967
  0.1041012100000032  0.6664332499999972  0.5613374100000001
  0.2252301999999986  0.9991804200000018  0.8936102500000018
  0.6662340999999969  0.5586436500000005  0.2256357500000021
  0.5594118300000019  0.6639504999999986  0.7750054799999972
  0.9969152899999969  0.2259685900000008  0.8941431200000025
  0.7694626199999988  0.7707233799999997  0.8974306300000023
  0.6660966900000034  0.1045781300000002  0.2297514300000003
  0.2249432600000034  0.2262311400000030  0.8937977499999974
  0.4377205099999983  0.3339290899999980  0.2282978799999995
  0.7683807499999986  0.9977539599999972  0.8960513800000030
  0.5615900700000012  0.8984058699999977  0.5624737300000007
  0.4373793899999967  0.1040589600000033  0.2291222099999999
  0.4351430800000031  0.1038477700000016  0.4370899600000016
 
  0.00000000E+00  0.00000000E+00  0.00000000E+00
  0.00000000E+00  0.00000000E+00  0.00000000E+00
  0.00000000E+00  0.00000000E+00  0.00000000E+00
  0.00000000E+00  0.00000000E+00  0.00000000E+00
  0.00000000E+00  0.00000000E+00  0.00000000E+00
  0.00000000E+00  0.00000000E+00  0.00000000E+00
  0.00000000E+00  0.00000000E+00  0.00000000E+00
  0.00000000E+00  0.00000000E+00  0.00000000E+00
  0.00000000E+00  0.00000000E+00  0.00000000E+00
  0.00000000E+00  0.00000000E+00  0.00000000E+00
  0.00000000E+00  0.00000000E+00  0.00000000E+00
  0.00000000E+00  0.00000000E+00  0.00000000E+00
  0.00000000E+00  0.00000000E+00  0.00000000E+00
  0.00000000E+00  0.00000000E+00  0.00000000E+00
  0.00000000E+00  0.00000000E+00  0.00000000E+00
  0.00000000E+00  0.00000000E+00  0.00000000E+00
  0.00000000E+00  0.00000000E+00  0.00000000E+00
  0.00000000E+00  0.00000000E+00  0.00000000E+00
  0.00000000E+00  0.00000000E+00  0.00000000E+00
  0.00000000E+00  0.00000000E+00  0.00000000E+00
  0.00000000E+00  0.00000000E+00  0.00000000E+00
  0.00000000E+00  0.00000000E+00  0.00000000E+00
  0.00000000E+00  0.00000000E+00  0.00000000E+00
  0.00000000E+00  0.00000000E+00  0.00000000E+00
  0.00000000E+00  0.00000000E+00  0.00000000E+00
  0.00000000E+00  0.00000000E+00  0.00000000E+00
  0.00000000E+00  0.00000000E+00  0.00000000E+00
  0.00000000E+00  0.00000000E+00  0.00000000E+00
  0.00000000E+00  0.00000000E+00  0.00000000E+00
  0.00000000E+00  0.00000000E+00  0.00000000E+00
  0.00000000E+00  0.00000000E+00  0.00000000E+00
  0.00000000E+00  0.00000000E+00  0.00000000E+00
  0.00000000E+00  0.00000000E+00  0.00000000E+00
  0.00000000E+00  0.00000000E+00  0.00000000E+00
  0.00000000E+00  0.00000000E+00  0.00000000E+00
  0.00000000E+00  0.00000000E+00  0.00000000E+00
  0.00000000E+00  0.00000000E+00  0.00000000E+00
  0.00000000E+00  0.00000000E+00  0.00000000E+00
  0.00000000E+00  0.00000000E+00  0.00000000E+00
  0.00000000E+00  0.00000000E+00  0.00000000E+00
  0.00000000E+00  0.00000000E+00  0.00000000E+00
  0.00000000E+00  0.00000000E+00  0.00000000E+00
  0.00000000E+00  0.00000000E+00  0.00000000E+00
  0.00000000E+00  0.00000000E+00  0.00000000E+00
  0.00000000E+00  0.00000000E+00  0.00000000E+00
  0.00000000E+00  0.00000000E+00  0.00000000E+00
  0.00000000E+00  0.00000000E+00  0.00000000E+00
  0.00000000E+00  0.00000000E+00  0.00000000E+00
  0.00000000E+00  0.00000000E+00  0.00000000E+00
  0.00000000E+00  0.00000000E+00  0.00000000E+00
  0.00000000E+00  0.00000000E+00  0.00000000E+00
  0.00000000E+00  0.00000000E+00  0.00000000E+00
  0.00000000E+00  0.00000000E+00  0.00000000E+00
  0.00000000E+00  0.00000000E+00  0.00000000E+00
  0.00000000E+00  0.00000000E+00  0.00000000E+00
  0.00000000E+00  0.00000000E+00  0.00000000E+00
  0.00000000E+00  0.00000000E+00  0.00000000E+00
  0.00000000E+00  0.00000000E+00  0.00000000E+00
  0.00000000E+00  0.00000000E+00  0.00000000E+00
  0.00000000E+00  0.00000000E+00  0.00000000E+00
  0.00000000E+00  0.00000000E+00  0.00000000E+00
  0.00000000E+00  0.00000000E+00  0.00000000E+00
  0.00000000E+00  0.00000000E+00  0.00000000E+00
  0.00000000E+00  0.00000000E+00  0.00000000E+00
  0.00000000E+00  0.00000000E+00  0.00000000E+00
  0.00000000E+00  0.00000000E+00  0.00000000E+00
  0.00000000E+00  0.00000000E+00  0.00000000E+00
  0.00000000E+00  0.00000000E+00  0.00000000E+00
  0.00000000E+00  0.00000000E+00  0.00000000E+00
  0.00000000E+00  0.00000000E+00  0.00000000E+00
  0.00000000E+00  0.00000000E+00  0.00000000E+00
  0.00000000E+00  0.00000000E+00  0.00000000E+00
  0.00000000E+00  0.00000000E+00  0.00000000E+00
  0.00000000E+00  0.00000000E+00  0.00000000E+00
  0.00000000E+00  0.00000000E+00  0.00000000E+00
  0.00000000E+00  0.00000000E+00  0.00000000E+00
  0.00000000E+00  0.00000000E+00  0.00000000E+00
  0.00000000E+00  0.00000000E+00  0.00000000E+00
  0.00000000E+00  0.00000000E+00  0.00000000E+00
  0.00000000E+00  0.00000000E+00  0.00000000E+00
  0.00000000E+00  0.00000000E+00  0.00000000E+00
  0.00000000E+00  0.00000000E+00  0.00000000E+00
  0.00000000E+00  0.00000000E+00  0.00000000E+00
  0.00000000E+00  0.00000000E+00  0.00000000E+00
  0.00000000E+00  0.00000000E+00  0.00000000E+00
  0.00000000E+00  0.00000000E+00  0.00000000E+00
  0.00000000E+00  0.00000000E+00  0.00000000E+00
  0.00000000E+00  0.00000000E+00  0.00000000E+00
  0.00000000E+00  0.00000000E+00  0.00000000E+00
  0.00000000E+00  0.00000000E+00  0.00000000E+00
  0.00000000E+00  0.00000000E+00  0.00000000E+00
  0.00000000E+00  0.00000000E+00  0.00000000E+00
  0.00000000E+00  0.00000000E+00  0.00000000E+00
  0.00000000E+00  0.00000000E+00  0.00000000E+00
  0.00000000E+00  0.00000000E+00  0.00000000E+00
  0.00000000E+00  0.00000000E+00  0.00000000E+00
  0.00000000E+00  0.00000000E+00  0.00000000E+00
  0.00000000E+00  0.00000000E+00  0.00000000E+00
  0.00000000E+00  0.00000000E+00  0.00000000E+00
  0.00000000E+00  0.00000000E+00  0.00000000E+00
  0.00000000E+00  0.00000000E+00  0.00000000E+00
  0.00000000E+00  0.00000000E+00  0.00000000E+00
  0.00000000E+00  0.00000000E+00  0.00000000E+00
  0.00000000E+00  0.00000000E+00  0.00000000E+00
  0.00000000E+00  0.00000000E+00  0.00000000E+00
  0.00000000E+00  0.00000000E+00  0.00000000E+00
  0.00000000E+00  0.00000000E+00  0.00000000E+00
  0.00000000E+00  0.00000000E+00  0.00000000E+00
  0.00000000E+00  0.00000000E+00  0.00000000E+00
  0.00000000E+00  0.00000000E+00  0.00000000E+00
  0.00000000E+00  0.00000000E+00  0.00000000E+00
  0.00000000E+00  0.00000000E+00  0.00000000E+00
