Al  C  H  O Si 
 1.0000000000000000
    13.7295718099999995   -0.0046245600000000   -0.0014114400000000
    -6.8687391399999997   11.8909148200000008    0.0018197300000000
    -0.0015106500000000    0.0013072700000000   14.8903784300000002
   1   1   3  72  35
Cartesian
  3.0714999925659447  7.9266768264558545  8.4080303317387415
  5.4454451957227423  9.1137682703544165  7.4336900951132492
  5.7141875639118318  9.3902030221522015  6.4065512759825669
  6.3350538253974067  8.9498148415830485  8.0507382628385429
  4.7961739257685432  9.8839710177855018  7.8606796734827897
 -2.0732178398678012  3.9348737413153057 12.3971171811892837
 -0.0344652489235829  5.0499594687100799  7.9982883800469429
  6.8591596014909486  1.1264513141043484  3.0244572986282896
  6.8204874094374679  9.0200781979452884 12.9029848115579675
  2.4009021053328783  6.4899358567930649 11.9497824238868500
 -4.3635623111849950 10.4422948357086849  1.9749919373009110
 -2.5122881311047358  6.4849652196413041 11.9200312830848816
  4.4037712806554445  2.5647966531715505  6.8449157924117525
  4.4153607792342520 10.4816341036282967  2.0388497191418193
 -2.4798401765644633  9.3481293245231747  7.9692291495385410
 11.6686970197427087  1.1858900298942003  1.8405982174490547
  2.4400397318887022  1.4120877507796787 12.8981938949452370
  9.0200089746368874  5.1764796514208387  6.7031808120158241
 -0.0390162751834647 10.3635033631967204  8.0698486628432846
 11.3078193987848756  3.7628716931231745  2.4393166705738261
  8.8862393126146380  0.0904756021276561  7.5189319992869361
  9.2376732063947014  7.7400212277174365  7.4453674992994960
  2.4137768748389985  3.7148339196003008  2.4717460273304788
  8.9267914813922733  7.8880032740572750  2.4318633395422187
  2.3174473238000850  4.0067492795758959  7.4615595619234343
  9.2664915097575236  0.2070294868019226  2.4968532478029242
  2.3652526440536086 11.6518860588296764 12.4465739513971467
 11.3317903829754520  4.1135093198554449  7.4581137172554222
  9.2705721373594816  2.5829123869515609  6.9010579375798429
  4.4597838197044952  0.2409022845573637  2.4401048004722252
  9.3497772566695598  5.3767339418654183  3.0779475134425609
  1.9880880544508979  3.9456614707410411 12.4004161039819376
 -0.0379260982407314 10.7415741746988793 11.9211383684315599
 -3.6014902460039133  7.8989432689860637  9.9236503251009296
  8.6557567256335304  0.8397958057909448  4.9814226695818871
  8.5991990747683538  8.8075677587703236 14.8809995168232518
  1.7243800317326501 11.0478789136202344  9.9585426557329644
  8.6129079670758539  7.1502493810684831  4.9393042293497258
  1.7648342949293880  3.0645158003706285 14.8801012166573283
  3.2552188416447603  4.0643289867710362  4.9606291219591681
  6.8978834767835728  6.6512808848638283  6.9106419593545896
  3.2767806174213239 11.8396052481229201  0.0283601052527005
  2.4371196370199524  9.4426731430846793  7.9315168628557053
  3.6475516745744803  7.8797953568034043 10.0274043603715057
  3.5393717146773280 -0.0099567195581848 14.8724341909552837
 -1.8755640151095248  4.8363740176774082  9.9304125283004243
  5.0378308469764450  0.7831156766783111  4.9564269940468826
  1.7804970051509472  4.8287355740595688  9.9250722179707669
  5.1219189834945800  8.8336626689402475  0.0600320264482335
  4.3989938831480204  5.3713178517750837  2.9406359741391737
 11.2187073394576800  1.3999494623958226 12.9444458585558984
 -1.8296694816823780 11.0214573062716461  9.9390516474381343
  4.6510278777780787  5.2058692416406478  6.9268726940299397
  5.0995152159920725  6.9743770272858709  4.9501653100493206
 10.5463867534544491  3.8861845345176120  4.9477469601253832
  4.7539944273323789  0.0272578482510581  7.4684057077433401
 -2.4448574964574590 11.6580660380759404 12.4107863808326702
  6.8893893126930807  9.5366274272250973  1.9245452188704495
 -2.0832744008515038  9.0888117220979048 11.7659417611997732
 -0.0087229010331511  2.8408522854511489  1.9696101917409190
  6.8240539864195533  1.5995663502523629  6.7662967344944978
 -0.0454700277453862  5.5463222823479299 11.7415753081211243
  2.0179860266468901  1.1499604997531465  1.8428728995294035
 11.9389951401515368  3.0948664529461309 14.8761232558725816
 -4.8681336735069163 10.7060534558600118 13.0274028421224450
  4.7926795887446332 10.6915985016389943 13.0544363452601040
  2.1161084491411724  6.5965981661332220  7.9188480095696248
  2.0224929195094314  9.0911508768973253 11.7820681489534600
  6.8787859097576156  6.2966882594204066  3.0943467565174592
 -2.0989694536892562  6.7175994326959172  8.0493191865695799
  4.8116612497437057  2.7812976296143908  3.2034360938667175
  4.6587377370965912  7.8597609969789950  7.3958701911924658
  8.9157129279624314  2.7745245796288485  3.1485372319781830
  4.3743518195090862  8.0901603346531328 12.5607027135912368
 -4.4959357461446707  8.1336669514867825 12.4014235429312549
 -0.0322789590394363  2.3179487381675496 13.0396860211702883
  4.8378818270332253  7.9389982709243805  2.5222610665824008
  1.5294756545158859 10.6162113485911398 11.5126954951743627
  8.3818071384443282  9.1689028883563743 13.3069951703543108
 10.0242907358761872  3.9412917192930061  3.4066711461599906
  3.7227197882518661 11.8804029479513531  1.5902461001212960
 -1.5938174121378292  5.1940050988928066  8.3697355424952704
  1.5329433455427945  5.2090601488826316 11.4867971321692721
 -5.2895110993991059  9.1764003356373021  1.5674333158000404
 -1.5940755945575662 10.6222141762489635 11.5002009206041951
 -3.7409899832626601 11.8801381450535626  1.5546870111198288
  1.5510204084953334  2.6876186370003126  1.5573066533982147
 -1.6142815838608215  5.2013285203174462 11.4941741691962775
  8.4017237580673712  1.2683278814332675  6.5351685444922385
 12.1600691322324401  2.7120218415336184  1.5487659985726689
 10.0490245766103676  3.9352039661010703  6.4959557295634163
 -1.6045456053022074 10.6605493086525911  8.3684002039264627
  8.4730358623890254  6.6789037187575255  6.4891646280359323
 -3.1679202470968226  7.9052913625787982 11.4975916990814824
  1.5501280904415269  5.1590289018598128  8.3397515458358207
  8.4409833038646500  6.6749803460517168  3.3856486779348716
  5.3205641690416758  9.2041195251434882  1.6226253225163660
  5.3435860224321443  6.5907609979385615  6.4979046034476156
  3.6418066740659567  3.9546081485523779  6.5393459015290754
 -3.1491390946279312  7.9247534062300184  8.3595922577822463
 -3.7721453864191390 11.8812958633296297 13.3076951310991074
  5.3095905575075228  6.6399979841613002  3.3598779359879831
  3.1188113429475810  7.8934049480377046 11.5405435169338269
 12.1337500266941340  2.6835318475884637 13.3131335430862645
  5.2691387465004400  9.1622208194482244 13.3633981535092250
  8.4265553690415711  1.2407495789080765  3.4203358859820265
  1.5331017397696438  2.6902233867536713 13.3090809230600300
  3.7156984860948183  3.9689965473179760  3.3994316725130398
  3.6948733873874642 11.8618253078840006 13.3432752604115841
  1.5386259300329510 10.6810058720168914  8.3762889020590592
  5.2899317683327647  1.2356330669774358  3.4112884380629893
  5.2603646321357829  1.2334040366269159  6.5080097089072302
