Al  C  H  O Si 
 1.0000000000000000
    13.7295718138195095   -0.0046245600172939   -0.0014114421969975
    -6.8687391429947304   11.8909148165505947    0.0018197327751748
    -0.0015106504129000    0.0013072721429291   14.8903784328561191
   1   1   3  72  35
Direct
  0.5622667516583352  0.6669577404094831  0.5621036434180853
  0.7559067597014869  0.7604939069786363  0.5036002335182378
  0.8012876669395813  0.8512034858662297  0.5035934496297849
  0.8012527872902740  0.7151655772622079  0.5036100713302648
  0.6651798248746054  0.7151126578074709  0.5035971795946637
  0.0186690817836403  0.3341577755021101  0.8340002778813645
  0.2140963294478678  0.4270762759338965  0.5352447126339096
  0.5468406795136310  0.0936785772965038  0.2025553258951368
  0.8803337312850883  0.7606020500780326  0.8669023619704337
  0.4530753189307429  0.5473560521834347  0.7989907068776394
  0.1205470244416787  0.8795321454133063  0.1313714629913318
  0.0935683365867545  0.5470498834410296  0.7975390442637010
  0.4290843682086267  0.2145077510326124  0.4664217764455377
  0.7601449101132246  0.8800973072208933  0.1331006796953434
  0.2137851520936517  0.7870300601888870  0.5337906826285325
  0.9002872125131476  0.0991511220657587  0.1238798584364703
  0.2393720315695360  0.1199970248018421  0.8678146687820403
  0.8635745360219368  0.4315160716298680  0.4567691541190349
  0.4324293858770808  0.8642672335256465  0.5437002778337173
  0.9822945199222584  0.3153045696287038  0.1669417665935398
  0.6481713033239898  0.9995341355755478  0.4995517601230831
  0.0004389606203758  0.6472084712550945  0.4997552881405513
  0.3329812518338655  0.3145266832765987  0.1670458248743714
  0.9809864218149877  0.6664419749849859  0.1665837552934308
  0.3523919751622817  0.3517415241421832  0.5005009131913415
  0.6838516795155344  0.0178877795511331  0.1656633526773929
  0.6666937723703499  0.9818654050880459  0.8335230267741959
  0.0011699220859029  0.3533540965972807  0.4992524842448504
  0.7876204942491061  0.2129612054832708  0.4656206098116848
  0.3337375231368846  0.0184954785726525  0.1666831014656442
  0.9060453777049839  0.4529323258888595  0.2005274366149426
  0.3149595499325533  0.3339420846522215  0.8341438646882762
  0.4534372075351882  0.9069661521997384  0.7985922191071093
  0.0732883180588161  0.6687306903066015  0.6665763524338925
  0.6687839685734274  0.0724877096491452  0.3329134057324599
  0.9983989773718054  0.7387219672836500  0.9999568177449919
  0.5948458775303009  0.9288267675577334  0.6666467943950896
  0.9277530440834973  0.5932834701786681  0.3331701149710476
  0.2604439244215167  0.2602267557610893  0.0004104265150280
  0.4049654729943366  0.3317323065259520  0.3337597369662446
  0.7871779610963632  0.5737054534051002  0.4650408026287493
  0.7396209427155208  0.9988133275893878  0.9998182794925916
  0.5734614608896922  0.7865688617185431  0.5355358609234817
  0.5950264115659917  0.6664976215383589  0.6671420216130283
  0.2617337449120463  0.0009314230275305  0.9998874531012700
  0.0717168619108306  0.4044548791369340  0.6666389220691954
  0.4050261498272316  0.0734130323133237  0.3335748591554187
  0.3338849270382333  0.4055615010129325  0.6671565968418484
  0.7413014795308153  0.7415777089280721  0.9999041987903049
  0.5462607716672008  0.4535636781898199  0.2024938577692794
  0.8800595798675939  0.1206368758390653  0.8680131543541812
  0.3329064512768999  0.9270462231699824  0.6666057112618121
  0.5681333275860531  0.4334556751476667  0.4557346189360427
  0.6678731474547468  0.5962052033189870  0.3331852118544394
  0.9270769176075754  0.3336569213079814  0.3330915029479545
  0.3533754970946805  0.0007534230379217  0.5003006409227297
  0.3150776224797028  0.9821915860702177  0.8330273813787211
  0.9017557053669745  0.8030153810021388  0.1242437616211022
  0.2345129375671449  0.7660425487680457  0.7906574610474574
  0.1193816185018186  0.2387437146402126  0.1324424518625828
  0.5688651345780217  0.1355770545242722  0.4550508075501847
  0.2342663258274872  0.4688324813118860  0.7895233220324385
  0.1978963568447712  0.0984272069536691  0.1237309431049664
  0.0000192191694144  0.2607987007698103  0.0004000703781452
  0.0992962034791315  0.9009404605474658  0.8771148974726950
  0.8028974336402330  0.9018426460341112  0.8752208878126581
  0.4331228031135727  0.5675429620771445  0.5438745431132368
  0.5314981292919664  0.7661789305899009  0.7892756849446870
  0.7651388744292345  0.5306959981966741  0.2105073504707374
  0.1368137913442962  0.5684572267375522  0.5450336087871790
  0.4689804155366005  0.2346722405471165  0.2096390960086016
  0.6491328377070701  0.6489548426302092  0.5002655152645584
  0.7659773894649636  0.2339491359179359  0.2091249379904786
  0.6663174247495472  0.6854926434438413  0.8341904370678013
  0.0185087441871374  0.6850433298230617  0.8335403589649796
  0.0989365280348580  0.1984156738330929  0.8768132538644942
  0.6853553032805955  0.6661726497496802  0.1656790163911710
  0.5616022616646628  0.8954867031910537  0.7716142481413796
  0.9996395366495042  0.7717805908383453  0.8947917273501091
  0.8948849633649819  0.3335258847879914  0.2278614321328016
  0.7714475364321575  0.9994286359074339  0.1051867844063966
  0.1059270304536280  0.4387451690241743  0.5618960578763053
  0.3335785882411905  0.4388674823642310  0.7720625560388267
  0.0000457024461941  0.7719785322885934  0.1051151213756392
  0.3335811332620229  0.8951679316588491  0.7718231333912172
  0.2284392464149405  0.9997497369198787  0.1049973796217602
  0.2276921847294382  0.2275483574003958  0.1055069506482477
  0.1049777933067362  0.4386349019087020  0.7715156308538960
  0.6679020862066191  0.1051325756557776  0.4379081729466137
  0.0000669921578595  0.2280365134593312  0.1054730445505478
  0.8948619915938129  0.3332720056925207  0.4383271822066699
  0.3335458658985923  0.8947786824197527  0.5614985532429557
  0.8947156535642786  0.5610327357164133  0.4382899243408884
  0.1053703993773662  0.6670938136835916  0.7716466827308394
  0.3337543163449596  0.4383806289614265  0.5620866839274014
  0.8945260632072919  0.5608859918888266  0.2280876299996570
  0.7725653639484983  0.7727069041141595  0.1053421815456707
  0.6676542457361651  0.5626694026490696  0.4381402938110898
  0.4390344395916759  0.3333159989770244  0.4387115850095163
  0.1060127866747865  0.6673515797042865  0.5616493958592800
  0.2284557400589505  0.0005893963201444  0.8948740481834363
  0.6665722765424145  0.5616563262318429  0.2283612306053674
  0.5614985259908239  0.6668660852181250  0.7719899627404806
  0.9998794946977498  0.2285140837828139  0.8952079872753091
  0.7727644468974409  0.7728123415917397  0.8945036863198844
  0.6667610400428486  0.1049366846218319  0.2280022653451245
  0.2280181628926476  0.2281126369861878  0.8952105714559261
  0.4383503915769569  0.3332518699781600  0.2286356839166332
  0.7723668446628821  0.0004087676549166  0.8945789948959929
  0.5618187014305098  0.8947890203744802  0.5617579754024755
  0.4386592542236031  0.1054990502780370  0.2285069188115890
  0.4395184067929097  0.1060258900177599  0.4384476570174162
