Al  C  H  O Si                          
   1.00000000000000     
    13.7295718138195095   -0.0046245600172939   -0.0014114421969975
    -6.8687391429947304   11.8909148165505947    0.0018197327751748
    -0.0015106504129000    0.0013072721429291   14.8903784328561191
   Al   C    H    O    Si
     1     1     3    72    35
Direct
  0.5592412543727682  0.6690473823381908  0.5579506918177978
  0.7323296966187299  0.6716263409085020  0.6692541235473004
  0.7687353668510739  0.7035831802400642  0.6031018920401782
  0.7166685570809695  0.5856950636096371  0.6781573170882556
  0.7880723243742539  0.7265440900636108  0.7218644635422732
  0.0165512785398977  0.3343709880442371  0.8352196559275693
  0.2064957278010546  0.4185085233161602  0.5357685744955272
  0.5465069224743350  0.0955729280464166  0.2004861006803601
  0.8736392367739921  0.7572587715333081  0.8660343696574787
  0.4514189492812946  0.5454744227887860  0.7847447837654716
  0.1212876888293021  0.8786163443135512  0.1292680347401418
  0.0905943944586565  0.5468332483334193  0.7995326895197153
  0.4148820432226650  0.2097761685533824  0.4602536217365997
  0.7611571709955255  0.8807553232972769  0.1401421541791627
  0.2140500919872649  0.7858686469032355  0.5365568615909179
  0.9002431154186773  0.0983290102111823  0.1260062820743822
  0.2363676875650165  0.1202785332015021  0.8639609632227568
  0.8673072152217598  0.4365006932098269  0.4526328151462824
  0.4342374547635295  0.8708772110112086  0.5443687358832804
  0.9818709136264251  0.3146679422825180  0.1667398947236603
  0.6487043918127913  0.0103617175090483  0.5026317552423081
  0.0028025628652186  0.6506597711173677  0.4960528482881055
  0.3320049905377759  0.3145097734971012  0.1653423965849402
  0.9852427296346641  0.6652132798968721  0.1632024275933904
  0.3585658827956240  0.3622646962932180  0.4978721267273163
  0.6833077413709550  0.0186173634095434  0.1674893710685419
  0.6594579406916432  0.9743280274632867  0.8397902803579381
 -0.0048689393452871  0.3499800441673597  0.5020695626886553
  0.7815828486891998  0.2193995249961394  0.4624688744356221
  0.3346062524486723  0.0175021565344846  0.1620903565219918
  0.9092421071981952  0.4531995856057802  0.2022330993803377
  0.3147892220825621  0.3378156375114184  0.8390722472396526
  0.4467332778622434  0.8997086377273333  0.8016894356201723
  0.0671296726111619  0.6630310837981583  0.6648488618508339
  0.6622207004819946  0.0720580293683415  0.3338778647362646
  0.9940515455081869  0.7401312878893503 -0.0014541266085327
  0.5949580360739796  0.9488650827315134  0.6702215011020678
  0.9227105514622261  0.5968390512823052  0.3296411289236884
  0.2549770037188213  0.2551924919157864  0.0003266408714781
  0.4094482124259540  0.3416579831235165  0.3307846935223966
  0.7881711997569040  0.5753403916227561  0.4671478725105346
  0.7394028692718707  0.9950657398388097  0.0032502855110159
  0.5831324773787934  0.8021734003969183  0.5479142123781211
  0.6236620704910502  0.6698221995300091  0.6726811890775561
  0.2576252960963874  0.0023360394199715 -0.0027595719580334
  0.0678086185901333  0.4055909558513722  0.6676485811936954
  0.3992099838755062  0.0670089717883014  0.3311078476819483
  0.3166304009444914  0.3840953133111360  0.6679605171409981
  0.7455351197341534  0.7470773415100107  0.0052941893280273
  0.5472316167395341  0.4498398085223084  0.1924722418697578
  0.8753974940337753  0.1202697709731261  0.8695345246004892
  0.3324680663273732  0.9295973600687288  0.6672401847442290
  0.5719260392912144  0.4238477385665008  0.4541040900882798
  0.6701811748021264  0.5812488587431680  0.3276996497108440
  0.9304064334978427  0.3329798428564433  0.3336168993103102
  0.3468140202272974 -0.0002553220016770  0.4996426547583726
  0.3112390709242530  0.9806088243728698  0.8326973962290032
  0.9027555631597350  0.8018153206185821  0.1300169907775652
  0.2289727221637990  0.7651738839913218  0.7882897731295249
  0.1183016818643155  0.2374846150207379  0.1340416967037681
  0.5621531580681240  0.1388057323543619  0.4533713628451042
  0.2326306815833852  0.4692063553059094  0.7881581546722245
  0.1967388661623066  0.0970005569347060  0.1255542907563919
 -0.0010554419621285  0.2584937299061161  0.0010423168506820
  0.0943195997398557  0.9011915135226080  0.8745957044694530
  0.8026173285007728  0.9022726841920233  0.8755300712009385
  0.4207953147558578  0.5668338017778738  0.5682845323236465
  0.5323422659896145  0.7665329820984257  0.7722945445070419
  0.7678105104667995  0.5294795423589821  0.1975554137467793
  0.1346072241965475  0.5661306755898892  0.5429895366583187
  0.4648723298592933  0.2322755447796263  0.2107915022093193
  0.6390863105883641  0.6402022503101059  0.4872720374458874
  0.7661697228241900  0.2345047251177576  0.2114475965418818
  0.6553345345046941  0.6847182666050119  0.8474829552227747
  0.0133210915576954  0.6847945248913303  0.8310853083273989
  0.0958488828083569  0.1977848336740485  0.8746974042106709
  0.6840417303148963  0.6652911600350621  0.1672228179035979
  0.5589009814273169  0.8977185110282676  0.7704111145842552
 -0.0044842326750500  0.7717401583391523  0.8931888267997342
  0.8959113687246653  0.3330239978303167  0.2291823671048449
  0.7712522130880555  0.9987417261736464  0.1090761581091998
  0.1022112011713718  0.4360934909611331  0.5622883834046146
  0.3279254515011308  0.4338293188001885  0.7687118992030240
  0.0003051991320738  0.7713858116452755  0.1048589189281058
  0.3300740010840751  0.8937803546573030  0.7715971288309699
  0.2278029075450613  0.9995289146788402  0.1031982130513960
  0.2257208078807256  0.2255761249652020  0.1060588811180437
  0.1025598202110243  0.4388225045065869  0.7721392656988691
  0.6626243952370432  0.1100087997342954  0.4376509156745472
 -0.0005195175423130  0.2269087122227227  0.1063656637053538
  0.8940985824178267  0.3351460737717491  0.4373576436343479
  0.3327006889459543  0.8965224959255456  0.5620103985421911
  0.8953848363450500  0.5647678419680014  0.4355935743630640
  0.1004830568312132  0.6651975150718527  0.7701978193315769
  0.3282222200713160  0.4356478138112089  0.5660403332774111
  0.8954876407548646  0.5609195064868965  0.2244206635038772
  0.7743574102548084  0.7741592218942732  0.1114390919476568
  0.6659793656225301  0.5557598963561645  0.4345191535682050
  0.4389517869239376  0.3352054489879458  0.4361172325619693
  0.1049675060179760  0.6657214556666186  0.5602590147577519
  0.2243154905488501  0.0006907220425361  0.8923462944478482
  0.6673028488921369  0.5557051547741736  0.2219008725418777
  0.5620506734915163  0.6666895082905686  0.7732006338801637
 -0.0029850359676461  0.2277099465389241  0.8953922455766770
  0.7703971049838985  0.7740494189406296  0.8998870497298763
  0.6650759050851954  0.1057691898160903  0.2289169688536548
  0.2247853800197890  0.2274743600866345  0.8946329622610338
  0.4383477304581130  0.3341251915140149  0.2260330358877436
  0.7696400750052915 -0.0009784217225566  0.8973619118519487
  0.5646948639847591  0.9055964210752812  0.5656582670673141
  0.4362264744151572  0.1034532645948623  0.2271124578057095
  0.4313805834164696  0.1039409817416521  0.4359592884721954
 
  0.00000000E+00  0.00000000E+00  0.00000000E+00
  0.00000000E+00  0.00000000E+00  0.00000000E+00
  0.00000000E+00  0.00000000E+00  0.00000000E+00
  0.00000000E+00  0.00000000E+00  0.00000000E+00
  0.00000000E+00  0.00000000E+00  0.00000000E+00
  0.00000000E+00  0.00000000E+00  0.00000000E+00
  0.00000000E+00  0.00000000E+00  0.00000000E+00
  0.00000000E+00  0.00000000E+00  0.00000000E+00
  0.00000000E+00  0.00000000E+00  0.00000000E+00
  0.00000000E+00  0.00000000E+00  0.00000000E+00
  0.00000000E+00  0.00000000E+00  0.00000000E+00
  0.00000000E+00  0.00000000E+00  0.00000000E+00
  0.00000000E+00  0.00000000E+00  0.00000000E+00
  0.00000000E+00  0.00000000E+00  0.00000000E+00
  0.00000000E+00  0.00000000E+00  0.00000000E+00
  0.00000000E+00  0.00000000E+00  0.00000000E+00
  0.00000000E+00  0.00000000E+00  0.00000000E+00
  0.00000000E+00  0.00000000E+00  0.00000000E+00
  0.00000000E+00  0.00000000E+00  0.00000000E+00
  0.00000000E+00  0.00000000E+00  0.00000000E+00
  0.00000000E+00  0.00000000E+00  0.00000000E+00
  0.00000000E+00  0.00000000E+00  0.00000000E+00
  0.00000000E+00  0.00000000E+00  0.00000000E+00
  0.00000000E+00  0.00000000E+00  0.00000000E+00
  0.00000000E+00  0.00000000E+00  0.00000000E+00
  0.00000000E+00  0.00000000E+00  0.00000000E+00
  0.00000000E+00  0.00000000E+00  0.00000000E+00
  0.00000000E+00  0.00000000E+00  0.00000000E+00
  0.00000000E+00  0.00000000E+00  0.00000000E+00
  0.00000000E+00  0.00000000E+00  0.00000000E+00
  0.00000000E+00  0.00000000E+00  0.00000000E+00
  0.00000000E+00  0.00000000E+00  0.00000000E+00
  0.00000000E+00  0.00000000E+00  0.00000000E+00
  0.00000000E+00  0.00000000E+00  0.00000000E+00
  0.00000000E+00  0.00000000E+00  0.00000000E+00
  0.00000000E+00  0.00000000E+00  0.00000000E+00
  0.00000000E+00  0.00000000E+00  0.00000000E+00
  0.00000000E+00  0.00000000E+00  0.00000000E+00
  0.00000000E+00  0.00000000E+00  0.00000000E+00
  0.00000000E+00  0.00000000E+00  0.00000000E+00
  0.00000000E+00  0.00000000E+00  0.00000000E+00
  0.00000000E+00  0.00000000E+00  0.00000000E+00
  0.00000000E+00  0.00000000E+00  0.00000000E+00
  0.00000000E+00  0.00000000E+00  0.00000000E+00
  0.00000000E+00  0.00000000E+00  0.00000000E+00
  0.00000000E+00  0.00000000E+00  0.00000000E+00
  0.00000000E+00  0.00000000E+00  0.00000000E+00
  0.00000000E+00  0.00000000E+00  0.00000000E+00
  0.00000000E+00  0.00000000E+00  0.00000000E+00
  0.00000000E+00  0.00000000E+00  0.00000000E+00
  0.00000000E+00  0.00000000E+00  0.00000000E+00
  0.00000000E+00  0.00000000E+00  0.00000000E+00
  0.00000000E+00  0.00000000E+00  0.00000000E+00
  0.00000000E+00  0.00000000E+00  0.00000000E+00
  0.00000000E+00  0.00000000E+00  0.00000000E+00
  0.00000000E+00  0.00000000E+00  0.00000000E+00
  0.00000000E+00  0.00000000E+00  0.00000000E+00
  0.00000000E+00  0.00000000E+00  0.00000000E+00
  0.00000000E+00  0.00000000E+00  0.00000000E+00
  0.00000000E+00  0.00000000E+00  0.00000000E+00
  0.00000000E+00  0.00000000E+00  0.00000000E+00
  0.00000000E+00  0.00000000E+00  0.00000000E+00
  0.00000000E+00  0.00000000E+00  0.00000000E+00
  0.00000000E+00  0.00000000E+00  0.00000000E+00
  0.00000000E+00  0.00000000E+00  0.00000000E+00
  0.00000000E+00  0.00000000E+00  0.00000000E+00
  0.00000000E+00  0.00000000E+00  0.00000000E+00
  0.00000000E+00  0.00000000E+00  0.00000000E+00
  0.00000000E+00  0.00000000E+00  0.00000000E+00
  0.00000000E+00  0.00000000E+00  0.00000000E+00
  0.00000000E+00  0.00000000E+00  0.00000000E+00
  0.00000000E+00  0.00000000E+00  0.00000000E+00
  0.00000000E+00  0.00000000E+00  0.00000000E+00
  0.00000000E+00  0.00000000E+00  0.00000000E+00
  0.00000000E+00  0.00000000E+00  0.00000000E+00
  0.00000000E+00  0.00000000E+00  0.00000000E+00
  0.00000000E+00  0.00000000E+00  0.00000000E+00
  0.00000000E+00  0.00000000E+00  0.00000000E+00
  0.00000000E+00  0.00000000E+00  0.00000000E+00
  0.00000000E+00  0.00000000E+00  0.00000000E+00
  0.00000000E+00  0.00000000E+00  0.00000000E+00
  0.00000000E+00  0.00000000E+00  0.00000000E+00
  0.00000000E+00  0.00000000E+00  0.00000000E+00
  0.00000000E+00  0.00000000E+00  0.00000000E+00
  0.00000000E+00  0.00000000E+00  0.00000000E+00
  0.00000000E+00  0.00000000E+00  0.00000000E+00
  0.00000000E+00  0.00000000E+00  0.00000000E+00
  0.00000000E+00  0.00000000E+00  0.00000000E+00
  0.00000000E+00  0.00000000E+00  0.00000000E+00
  0.00000000E+00  0.00000000E+00  0.00000000E+00
  0.00000000E+00  0.00000000E+00  0.00000000E+00
  0.00000000E+00  0.00000000E+00  0.00000000E+00
  0.00000000E+00  0.00000000E+00  0.00000000E+00
  0.00000000E+00  0.00000000E+00  0.00000000E+00
  0.00000000E+00  0.00000000E+00  0.00000000E+00
  0.00000000E+00  0.00000000E+00  0.00000000E+00
  0.00000000E+00  0.00000000E+00  0.00000000E+00
  0.00000000E+00  0.00000000E+00  0.00000000E+00
  0.00000000E+00  0.00000000E+00  0.00000000E+00
  0.00000000E+00  0.00000000E+00  0.00000000E+00
  0.00000000E+00  0.00000000E+00  0.00000000E+00
  0.00000000E+00  0.00000000E+00  0.00000000E+00
  0.00000000E+00  0.00000000E+00  0.00000000E+00
  0.00000000E+00  0.00000000E+00  0.00000000E+00
  0.00000000E+00  0.00000000E+00  0.00000000E+00
  0.00000000E+00  0.00000000E+00  0.00000000E+00
  0.00000000E+00  0.00000000E+00  0.00000000E+00
  0.00000000E+00  0.00000000E+00  0.00000000E+00
  0.00000000E+00  0.00000000E+00  0.00000000E+00
  0.00000000E+00  0.00000000E+00  0.00000000E+00
  0.00000000E+00  0.00000000E+00  0.00000000E+00
  0.00000000E+00  0.00000000E+00  0.00000000E+00
