Al  C  H  O Si 
 1.0000000000000000
    13.7295718138195095   -0.0046245600172939   -0.0014114421969975
    -6.8687391429947304   11.8909148165505947    0.0018197327751748
    -0.0015106504129000    0.0013072721429291   14.8903784328561191
   1   1   3  72  35
Cartesian
  3.1376738650411760  7.9288722635439344  8.3703560468231242
  5.0882536958071487  7.9067965174857360  9.8549093141086210
  4.8046243709808962  8.2798758952626308  8.8836553246309897
  5.3312905336098151  6.8638461695614810  9.9820114154310069
  5.1288461828307410  8.5766674876331006 10.6990612022638665
 -2.0401839763449705  3.9744455728249219 12.4191614782870321
  0.0051668290319455  5.0780372264770826  7.9704713054074503
  6.8641286790770044  1.1116598801610134  3.0155240921364257
  6.8609185237822299  9.0413163079045038 12.9086457863801911
  2.4596771919001399  6.5075134151254552 11.8976305418675583
 -4.3864163020630382 10.4580560808321241  1.9576011675336915
 -2.4740945535811441  6.5055334525884145 11.8765216023688875
  4.4170422612650677  2.5493188088005767  6.9449814796007940
  4.3911042399597466 10.4618207734913131  1.9824481316473579
 -2.4715319538499041  9.3582165511936335  7.9494757072822626
 11.6793276048984236  1.1749960588902812  1.8435276975130466
  2.4609362717667769  1.4269018797734825 12.9219693304810868
  8.8918472583523833  5.1277243190429944  6.8010319196861762
 -0.0001772101693299 10.2756390211683879  8.0968652773219727
 11.3204861235715857  3.7449353370829823  2.4850133989515633
  2.0328205667838430 11.8830308053696214  7.4394187837300887
 -4.4402343743591368  7.6965520864109962  7.4427224911338321
  2.4110359209259760  3.7386884809439351  2.4874779187325782
  8.8906557967579065  7.9202858944391350  2.4803232977596847
  2.4214140726010389  4.1815531340809491  7.4527906980853880
  9.2658739929133596  0.2097561168509719  2.4658573476838570
  2.4079835225997592 11.6732843692898047 12.4123190341030902
 -2.4117887813117713  4.2023507112074947  7.4346997827027810
  9.3502137798203666  2.5292698482373752  6.9325429379178809
  4.4547808733376559  0.2186026711682212  2.4815370647912709
  9.3282381569644244  5.3818517875107528  2.9854748024869324
  2.0292385911296789  3.9705107859567130 12.4208809508108899
 -0.0054216007390453 10.7836042870830298 11.8923507916639366
 -3.5881264065703129  7.9523521441201170  9.9266876110637927
  8.6837154400331311  0.8592875575048879  4.9563945550744259
  8.6319913810192723  8.7807700457844664 14.8896705268669702
  1.7861033480664683 11.0427205606828522  9.9274736755324380
  8.6620393461543230  7.0508283003386447  4.9607992420179219
  1.7883532404564866  3.0931302837219525  0.0062173477392009
  3.2809156704779396  3.9431641264697186  4.9698408678717581
  6.8662807286948810  6.8188502593918034  6.9245664722872480
  3.2925802723628412 11.8746908091459904 14.8884461868719615
  2.4698349731264835  9.3510714162153974  7.9749535709493955
  3.5904517285707795  7.9233868439742725  9.9343701724595448
  3.5855840646680903  0.0111721934801456 14.8883348398316500
 -1.7944603123994147  4.8098783345156031  9.9271406032761060
  5.0560767268726172  0.8715111190449143  4.9666178096131359
  1.7973930860355973  4.8218253457672420  9.9344809552323223
  5.0825375563316175  8.8159163204381326 14.8892550856628034
  4.3842100060243645  5.3910255600922232  3.0152645217006477
 11.2529067066375443  1.4315476554076072 12.9240217266808717
 -1.7979826585560432 11.0227595599317887  9.9272284043750201
  4.8222449025867045  5.1521529124319887  6.7860478270577289
  5.0739309968294961  7.0867722301418512  4.9613961625505913
 10.4360635766919323  3.9636341476224581  4.9591571826178464
  4.8457634189239931  0.0079787120607661  7.4491684754805201
 -2.4217953615556285 11.6787883816083919 12.4054355660292934
  6.8648288465513314  9.5445796889044470  1.8502251258136180
 -2.0431786293446312  9.1088957785729505 11.7742517970351841
 -0.0010098676670619  2.8385022246417693  1.9723841783176861
  6.8783438735739333  1.6100993307146820  6.7753225243533661
 -0.0051043656185936  5.5747958416729508 11.7568235430834402
  2.0407745196549385  1.1696360999527826  1.8423003586329190
 -1.7910949778195711  3.1011355692415408  0.0064317561471250
 -4.8263556643457353 10.7136936977729125 13.0620720724971715
  4.8275939378629698 10.7211651864401531 13.0328781011741270
  2.0474644662970292  6.7473130064337328  8.0989192156814322
  2.0333662043047305  9.1091422509983708 11.7532576987024431
  6.8594987451611393  6.3071976677897297  3.1344198870147926
 -2.0270129862741810  6.7595562636532822  8.1165980289548934
  4.8266811985774716  2.7885728494265289  3.1213705759094279
  4.4540586560903668  7.7143187829088147  7.4494075501151809
  8.9092900743979691  2.7786003214021489  3.1132940585267126
  4.4385226115123499  8.1491437195617600 12.4217182379097366
 -4.4525259897896348  8.1467959498651439 12.4129518558244136
 -0.0058338970804769  2.3600325714473223 13.0563025853005499
  4.8336184159703182  7.9184493521188459  2.4672681692575962
  1.5585283727061938 10.6465676534453113 11.4904650363823748
  8.4221115347753042  9.1737241059918446 13.3237809398447169
  9.9951408506149981  3.9620873128096932  3.3922868042951433
  3.7266708594929336 11.8806906771172915  1.5670008653860132
 -1.5601421731502914  5.2173261161934459  8.3674938307916467
  1.5642586114881460  5.2180024902173940 11.4966314279024715
 -5.3020504794667014  9.1796681703656855  1.5666086664294472
 -1.5699148418176736 10.6438319387733031 11.4938966753649296
 -3.7308057267663965 11.8870197887272528  1.5649475655976699
  1.5629865081694656  2.7048430846178344  1.5711311252955273
 -1.5727340585691283  5.2162933589488212 11.4888097384983539
  8.4472198934006766  1.2476062134397279  6.5198670220214092
 -1.5655628852861583  2.7117003287718164  1.5709484187850697
  9.9962513471414383  3.9593437003581951  6.5262010404811734
 -1.5674076692177703 10.6389286208602378  8.3620834246739850
  8.4298132033872992  6.6676277676705098  6.5260609269730798
 -3.1365686131756072  7.9328771736360117 11.4911763305691395
  1.5703325522711971  5.2119380496030363  8.3700100964211952
  8.4285356962211200  6.6656089344850340  3.3960692173388107
  5.2993103516392610  9.1847569109885452  1.5689006368820735
  5.3011156862792950  6.6881390982500797  6.5241563341080475
  3.7376314781169997  3.9619753251475749  6.5325683979836793
 -3.1292022057113513  7.9356647530688669  8.3642368215513105
  3.1311992379933486  0.0071217980694479 13.3246918476654237
  5.2935361730036563  6.6758234581761560  3.4004663792934129
  3.1274389463154542  7.9280603307151392 11.4956436869310394
 12.1569613492981201  2.7137877823741472 13.3289902691019186
  5.3001273056012508  9.1870413872333430 13.3198139984862660
  8.4332164370109215  1.2450077625325768  3.3942898765944740
  1.5623931933916217  2.7125837351442779 13.3301174556572910
  3.7289976283862418  3.9609413097325064  3.4044595798839890
 10.6001069458924881  0.0024582227355401 13.3195303647771777
  1.5666092187514136 10.6379962263064058  8.3656241437029202
  5.2976130823946921  1.2527503347642568  3.4021273335285152
  5.3054730074888399  1.2592854177073771  6.5282241199498090
