Al  C  H  O Si                          
   1.00000000000000     
    13.7295718138195095   -0.0046245600172939   -0.0014114421969975
    -6.8687391429947304   11.8909148165505947    0.0018197327751748
    -0.0015106504129000    0.0013072721429291   14.8903784328561191
   Al   C    H    O    Si
     1     1     3    72    35
Direct
  0.5655859711400074  0.6651192521116434  0.5679731919868365
  0.5995825408852115  0.8052762128332609  0.4191157533612410
  0.6453418805007844  0.8928283378989641  0.3969077135752125
  0.6472527509145251  0.7633774001228681  0.4031162515852178
  0.5151766278532310  0.7603146871259778  0.3894595139412839
  0.0167844265825887  0.3327469283645972  0.8354745334423150
  0.2097528966757073  0.4206055284385375  0.5383820401239477
  0.5489579083788867  0.0937508869613973  0.2043827333497043
  0.8784420606517656  0.7593219146877785  0.8661099852838406
  0.4507172233144156  0.5461128578833285  0.8018439522277634
  0.1233517649192337  0.8784603543663179  0.1319766261029436
  0.0934715432389975  0.5467095566807759  0.8008225664080757
  0.4168874029433828  0.2093235061302736  0.4644501990092884
  0.7631203533982405  0.8807369739734551  0.1371332397894586
  0.2165549385945961  0.7831080773514013  0.5343203318181852
  0.9007515059512883  0.0992294398835110  0.1238878996425441
  0.2387952176382183  0.1194689729939518  0.8666626564316117
  0.8768621847533695  0.4371976931350757  0.4554822219427295
  0.4341860647695648  0.8633410145207774  0.5465903124650164
  0.9828030360212120  0.3149843858661322  0.1662949090689659
  0.6486344012174887  0.0156943872041606  0.5130268371137953
  0.0038981762540684  0.6525613724570448  0.4996345456156877
  0.3351638095497148  0.3138042843710212  0.1654006742562223
  0.9843980178477313  0.6635179420613929  0.1634786617725722
  0.3566670933838214  0.3584007010196070  0.5001424737122593
  0.6856321403320806  0.0159126266731960  0.1716904273998943
  0.6663710176392112  0.9838423542334106  0.8352356660654602
 -0.0005712508288791  0.3448116020953041  0.5028945224668017
  0.7871537595259525  0.2188136006830731  0.4625070371083285
  0.3373419693032329  0.0199574619798413  0.1637904998289146
  0.9049369824256939  0.4501740021152959  0.2029087633098728
  0.3131871474539825  0.3326037763919606  0.8340262079707154
  0.4543386465078513  0.9106132847030147  0.7965178675552546
  0.0737066269415343  0.6661647233165823  0.6670156007495059
  0.6621752920233028  0.0664463699919817  0.3389033103889686
  0.9977657718979397  0.7412402236233907 -0.0001243557670704
  0.5918789169132666  0.9080636265331467  0.6711633094387881
  0.9361545598571566  0.5981745132746087  0.3317358822246385
  0.2578278940445554  0.2576613086492657  0.0000913572111896
  0.4055125531950147  0.3345866399344446  0.3328634755034959
  0.7894812429863636  0.5670002581037773  0.4616737809140083
  0.7364884102171065  0.9962220583742772  0.0030958805582599
  0.5887292200325694  0.8027444819342300  0.5186677143968961
  0.5986664720689902  0.6878524722466058  0.6791310966668950
  0.2604245045414812 -0.0002791321165131 -0.0013586441074278
  0.0675700107203603  0.4042838158615825  0.6688732927958438
  0.4030750483611538  0.0700524737795370  0.3324019501053868
  0.3348540237090896  0.4049600542135974  0.6676198325066527
  0.7485854870925753  0.7435263824322036  0.0047886961730946
  0.5489626411113092  0.4531765591315447  0.2013026541453626
  0.8782932953465533  0.1192241458450603  0.8720052915592477
  0.3318689602254430  0.9276278781033200  0.6657685950936753
  0.5708726178847316  0.4252988075127913  0.4539549385476057
  0.6667536328644643  0.5925363787978335  0.3350972594381774
  0.9367676383494238  0.3347863566668862  0.3338833374340715
  0.3545933368780751 -0.0023801318824612  0.4983342147953861
  0.3133274142428447  0.9813833670641624  0.8320087934770871
  0.9047833430790876  0.8022028255387309  0.1310569695931506
  0.2354119816123027  0.7654771021265123  0.7896379078954218
  0.1201629907517427  0.2374222095471340  0.1344699581994026
  0.5676987792430981  0.1443795790842758  0.4539005959170109
  0.2323585990358061  0.4666800945525170  0.7894172179357843
  0.1982255590461604  0.0970673512108135  0.1240021340482572
  0.0034654276274671  0.2616083938904601  0.0012553579549311
  0.0975103176623095  0.9010725910827158  0.8755965737609924
  0.7995357466974614  0.8995696919171600  0.8781191446625571
  0.4253711294941192  0.5725671914352720  0.5465404532738466
  0.5261074563889767  0.7646738754643378  0.8105501342255761
  0.7688954848554727  0.5332207893592207  0.2118622520850636
  0.1318921178048864  0.5630700885714935  0.5433763621565717
  0.4708908925253050  0.2349603385416369  0.2113596647015722
  0.6552399311240644  0.6418638506008071  0.5040009969333826
  0.7680770885772039  0.2311532134929132  0.2176994747210420
  0.6604001286955837  0.6801261848977663  0.8455800974548936
  0.0193852001827347  0.6857769743171188  0.8339305205265959
  0.0968570163548774  0.1957444103764044  0.8758227105118406
  0.6869093276584186  0.6676273205297956  0.1699943187820063
  0.5590573352916741  0.8904415903672795  0.7787686946429498
 -0.0017045950585009  0.7719081115675052  0.8941833155090512
  0.8977445085764223  0.3326972300077913  0.2302950135849624
  0.7718668696756156  0.9985507358692529  0.1078371485609002
  0.1035863495151492  0.4345623358681485  0.5640886727460419
  0.3329776068362132  0.4381882542016289  0.7720164713799261
  0.0021165639372172  0.7715185047134211  0.1059598405461070
  0.3327504260585306  0.8952090654381278  0.7710231232225120
  0.2296539665469651 -0.0007949361055105  0.1042273280934231
  0.2281425510218877  0.2262855535154861  0.1056052336746345
  0.1034370284312131  0.4376241618225312  0.7732992571752665
  0.6657972077676840  0.1125420699322120  0.4408873065681279
  0.0017200721728692  0.2277528056305057  0.1059865002209811
  0.9008196157642440  0.3348307493941299  0.4379723872816429
  0.3334568507829625  0.8932939762627675  0.5616848068089120
  0.9015249454998131  0.5639719142042330  0.4364524874859106
  0.1055751701778451  0.6661548454222659  0.7724954785267526
  0.3344940851869107  0.4424357468380996  0.5631142765140504
  0.8979070264550796  0.5614350231719277  0.2279897789982316
  0.7763539764137857  0.7734033832811092  0.1101481753233785
  0.6692392092205336  0.5568664740206218  0.4399162475867811
  0.4383318945014661  0.3337849003175276  0.4382484942844249
  0.1061258931212146  0.6649193559016064  0.5619837487409061
  0.2267686558887829 -0.0000805137789604  0.8938014744804628
  0.6682040369866853  0.5610592070936911  0.2302245202923565
  0.5590152656545686  0.6687999731503131  0.7816524992497069
 -0.0007099640102849  0.2272705254989662  0.8961744344595189
  0.7716825473304226  0.7710758195930174  0.8982630275384818
  0.6668442065575229  0.1026412875355401  0.2330863061227847
  0.2264037691721504  0.2268320174556213  0.8945098872588586
  0.4400133159536171  0.3339483197459792  0.2284648933648409
  0.7702776831172873 -0.0010665629677736  0.8975813989505202
  0.5644105746102499  0.9016454466425545  0.5658515226095915
  0.4398743397391558  0.1054293979808709  0.2281541966114330
  0.4355384894008759  0.1060144890546228  0.4370394507209364
 
  0.00000000E+00  0.00000000E+00  0.00000000E+00
  0.00000000E+00  0.00000000E+00  0.00000000E+00
  0.00000000E+00  0.00000000E+00  0.00000000E+00
  0.00000000E+00  0.00000000E+00  0.00000000E+00
  0.00000000E+00  0.00000000E+00  0.00000000E+00
  0.00000000E+00  0.00000000E+00  0.00000000E+00
  0.00000000E+00  0.00000000E+00  0.00000000E+00
  0.00000000E+00  0.00000000E+00  0.00000000E+00
  0.00000000E+00  0.00000000E+00  0.00000000E+00
  0.00000000E+00  0.00000000E+00  0.00000000E+00
  0.00000000E+00  0.00000000E+00  0.00000000E+00
  0.00000000E+00  0.00000000E+00  0.00000000E+00
  0.00000000E+00  0.00000000E+00  0.00000000E+00
  0.00000000E+00  0.00000000E+00  0.00000000E+00
  0.00000000E+00  0.00000000E+00  0.00000000E+00
  0.00000000E+00  0.00000000E+00  0.00000000E+00
  0.00000000E+00  0.00000000E+00  0.00000000E+00
  0.00000000E+00  0.00000000E+00  0.00000000E+00
  0.00000000E+00  0.00000000E+00  0.00000000E+00
  0.00000000E+00  0.00000000E+00  0.00000000E+00
  0.00000000E+00  0.00000000E+00  0.00000000E+00
  0.00000000E+00  0.00000000E+00  0.00000000E+00
  0.00000000E+00  0.00000000E+00  0.00000000E+00
  0.00000000E+00  0.00000000E+00  0.00000000E+00
  0.00000000E+00  0.00000000E+00  0.00000000E+00
  0.00000000E+00  0.00000000E+00  0.00000000E+00
  0.00000000E+00  0.00000000E+00  0.00000000E+00
  0.00000000E+00  0.00000000E+00  0.00000000E+00
  0.00000000E+00  0.00000000E+00  0.00000000E+00
  0.00000000E+00  0.00000000E+00  0.00000000E+00
  0.00000000E+00  0.00000000E+00  0.00000000E+00
  0.00000000E+00  0.00000000E+00  0.00000000E+00
  0.00000000E+00  0.00000000E+00  0.00000000E+00
  0.00000000E+00  0.00000000E+00  0.00000000E+00
  0.00000000E+00  0.00000000E+00  0.00000000E+00
  0.00000000E+00  0.00000000E+00  0.00000000E+00
  0.00000000E+00  0.00000000E+00  0.00000000E+00
  0.00000000E+00  0.00000000E+00  0.00000000E+00
  0.00000000E+00  0.00000000E+00  0.00000000E+00
  0.00000000E+00  0.00000000E+00  0.00000000E+00
  0.00000000E+00  0.00000000E+00  0.00000000E+00
  0.00000000E+00  0.00000000E+00  0.00000000E+00
  0.00000000E+00  0.00000000E+00  0.00000000E+00
  0.00000000E+00  0.00000000E+00  0.00000000E+00
  0.00000000E+00  0.00000000E+00  0.00000000E+00
  0.00000000E+00  0.00000000E+00  0.00000000E+00
  0.00000000E+00  0.00000000E+00  0.00000000E+00
  0.00000000E+00  0.00000000E+00  0.00000000E+00
  0.00000000E+00  0.00000000E+00  0.00000000E+00
  0.00000000E+00  0.00000000E+00  0.00000000E+00
  0.00000000E+00  0.00000000E+00  0.00000000E+00
  0.00000000E+00  0.00000000E+00  0.00000000E+00
  0.00000000E+00  0.00000000E+00  0.00000000E+00
  0.00000000E+00  0.00000000E+00  0.00000000E+00
  0.00000000E+00  0.00000000E+00  0.00000000E+00
  0.00000000E+00  0.00000000E+00  0.00000000E+00
  0.00000000E+00  0.00000000E+00  0.00000000E+00
  0.00000000E+00  0.00000000E+00  0.00000000E+00
  0.00000000E+00  0.00000000E+00  0.00000000E+00
  0.00000000E+00  0.00000000E+00  0.00000000E+00
  0.00000000E+00  0.00000000E+00  0.00000000E+00
  0.00000000E+00  0.00000000E+00  0.00000000E+00
  0.00000000E+00  0.00000000E+00  0.00000000E+00
  0.00000000E+00  0.00000000E+00  0.00000000E+00
  0.00000000E+00  0.00000000E+00  0.00000000E+00
  0.00000000E+00  0.00000000E+00  0.00000000E+00
  0.00000000E+00  0.00000000E+00  0.00000000E+00
  0.00000000E+00  0.00000000E+00  0.00000000E+00
  0.00000000E+00  0.00000000E+00  0.00000000E+00
  0.00000000E+00  0.00000000E+00  0.00000000E+00
  0.00000000E+00  0.00000000E+00  0.00000000E+00
  0.00000000E+00  0.00000000E+00  0.00000000E+00
  0.00000000E+00  0.00000000E+00  0.00000000E+00
  0.00000000E+00  0.00000000E+00  0.00000000E+00
  0.00000000E+00  0.00000000E+00  0.00000000E+00
  0.00000000E+00  0.00000000E+00  0.00000000E+00
  0.00000000E+00  0.00000000E+00  0.00000000E+00
  0.00000000E+00  0.00000000E+00  0.00000000E+00
  0.00000000E+00  0.00000000E+00  0.00000000E+00
  0.00000000E+00  0.00000000E+00  0.00000000E+00
  0.00000000E+00  0.00000000E+00  0.00000000E+00
  0.00000000E+00  0.00000000E+00  0.00000000E+00
  0.00000000E+00  0.00000000E+00  0.00000000E+00
  0.00000000E+00  0.00000000E+00  0.00000000E+00
  0.00000000E+00  0.00000000E+00  0.00000000E+00
  0.00000000E+00  0.00000000E+00  0.00000000E+00
  0.00000000E+00  0.00000000E+00  0.00000000E+00
  0.00000000E+00  0.00000000E+00  0.00000000E+00
  0.00000000E+00  0.00000000E+00  0.00000000E+00
  0.00000000E+00  0.00000000E+00  0.00000000E+00
  0.00000000E+00  0.00000000E+00  0.00000000E+00
  0.00000000E+00  0.00000000E+00  0.00000000E+00
  0.00000000E+00  0.00000000E+00  0.00000000E+00
  0.00000000E+00  0.00000000E+00  0.00000000E+00
  0.00000000E+00  0.00000000E+00  0.00000000E+00
  0.00000000E+00  0.00000000E+00  0.00000000E+00
  0.00000000E+00  0.00000000E+00  0.00000000E+00
  0.00000000E+00  0.00000000E+00  0.00000000E+00
  0.00000000E+00  0.00000000E+00  0.00000000E+00
  0.00000000E+00  0.00000000E+00  0.00000000E+00
  0.00000000E+00  0.00000000E+00  0.00000000E+00
  0.00000000E+00  0.00000000E+00  0.00000000E+00
  0.00000000E+00  0.00000000E+00  0.00000000E+00
  0.00000000E+00  0.00000000E+00  0.00000000E+00
  0.00000000E+00  0.00000000E+00  0.00000000E+00
  0.00000000E+00  0.00000000E+00  0.00000000E+00
  0.00000000E+00  0.00000000E+00  0.00000000E+00
  0.00000000E+00  0.00000000E+00  0.00000000E+00
  0.00000000E+00  0.00000000E+00  0.00000000E+00
  0.00000000E+00  0.00000000E+00  0.00000000E+00
  0.00000000E+00  0.00000000E+00  0.00000000E+00
  0.00000000E+00  0.00000000E+00  0.00000000E+00
